  Job Started  at 13:35.52 23rd July       2010

  Number of CPUs =     1

  Total number of configurations input = 219

*  Input for Configuration =   1                                               *

  Formula = Sb2Te3

  Number of irreducible atoms/shells =       5

  Total number atoms/shells =       5

  Dimensionality = 3               :  Bulk

  Cartesian lattice vectors (Angstroms) :

       -2.504286    0.000000   10.443767
        1.252143   -2.168775   10.443767
        1.252143    2.168775   10.443767

  Cell parameters (Angstroms/Degrees):

  a =      10.7398    alpha =  23.3006
  b =      10.7398    beta  =  23.3006
  c =      10.7398    gamma =  23.3006

  Initial cell volume =         170.167643 Angs**3

  Temperature of configuration =  0.000     K

  Pressure of configuration =         0.000 GPa

  Fractional coordinates of asymmetric unit :

   No.  Atomic       x           y          z         Charge      Occupancy
        Label      (Frac)      (Frac)     (Frac)        (e)         (Frac)
      1 Sb    c    0.369021    0.369021    0.369021      0.0000    1.000000
      2 Sb    c    0.603203    0.603203    0.603203      0.0000    1.000000
      3 Te1   c    0.000000    0.000000    0.000000      0.0000    1.000000
      4 Te2   c    0.784571    0.784571    0.784571      0.0000    1.000000
      5 Te2   c    0.215429    0.215429    0.215429      0.0000    1.000000

[...]

   No.  Atomic       x           y          z         Charge      Occupancy
        Label      (Frac)      (Frac)     (Frac)        (e)         (Frac)
      1 Sb    c    0.666667    0.333333    0.063305      0.0000    1.000000
      2 Sb    c    0.666667    0.333333    0.270028      0.0000    1.000000
      3 Sb    c    0.000000    0.000000    0.396639      0.0000    1.000000
      4 Sb    c    0.000000    0.000000    0.603361      0.0000    1.000000
      5 Sb    c    0.333333    0.666667    0.729972      0.0000    1.000000
      6 Sb    c    0.333333    0.666667    0.936695      0.0000    1.000000
      7 Te1   c    0.000000    0.000000    0.000000      0.0000    1.000000
      8 Te2   c    0.333333    0.666667    0.117591      0.0000    1.000000
      9 Te2   c    0.000000    0.000000    0.215743      0.0000    1.000000
     10 Te1   c    0.333333    0.666667    0.333333      0.0000    1.000000
     11 Te2   c    0.666667    0.333333    0.450924      0.0000    1.000000
     12 Te2   c    0.333333    0.666667    0.549076      0.0000    1.000000
     13 Te1   c    0.666667    0.333333    0.666667      0.0000    1.000000
     14 Te2   c    0.000000    0.000000    0.784257      0.0000    1.000000
     15 Te2   c    0.666667    0.333333    0.882409      0.0000    1.000000

[...]

   No.  Atomic       x           y          z         Charge      Occupancy
        Label      (Frac)      (Frac)     (Frac)        (e)         (Frac)
      1 Sb    c    0.396797    0.396797    0.396797      0.0000    1.000000
      2 Sb    c    0.603203 *  0.603203 *  0.603203 *    0.0000    1.000000
      3 Te1   c    0.000000 *  0.000000 *  0.000000 *    0.0000    1.000000
      4 Te2   c    0.784571 *  0.784571 *  0.784571 *    0.0000    1.000000
      5 Te2   c    0.215429 *  0.215429 *  0.215429 *    0.0000    1.000000

*  Input for Configuration = 219                                               *

  Formula = Sb6Te9

  Number of irreducible atoms/shells =      15

  Total number atoms/shells =      15

  Dimensionality = 3               :  Bulk

  Cartesian lattice vectors (Angstroms) :

        4.330000    0.000000    0.000000
       -2.165000    3.749890    0.000000
        0.000000    0.000000   31.432900

  Cell parameters (Angstroms/Degrees):

  a =       4.3300    alpha =  90.0000
  b =       4.3300    beta  =  90.0000
  c =      31.4329    gamma = 120.0000

  Initial cell volume =         510.376742 Angs**3

  Temperature of configuration =  0.000     K

  Pressure of configuration =         0.000 GPa

  Fractional coordinates of asymmetric unit :

   No.  Atomic       x           y          z         Charge      Occupancy
        Label      (Frac)      (Frac)     (Frac)        (e)         (Frac)
      1 Sb    c    0.666667    0.333333    0.063305      0.0000    1.000000
      2 Sb    c    0.666667 *  0.333333 *  0.270028 *    0.0000    1.000000
      3 Sb    c    0.000000 *  0.000000 *  0.396639 *    0.0000    1.000000
      4 Sb    c    0.000000 *  0.000000 *  0.603361 *    0.0000    1.000000
      5 Sb    c    0.333333 *  0.666667 *  0.729972 *    0.0000    1.000000
      6 Sb    c    0.333333 *  0.666667 *  0.936695 *    0.0000    1.000000
      7 Te1   c    0.000000 *  0.000000 *  0.000000 *    0.0000    1.000000
      8 Te2   c    0.333333 *  0.666667 *  0.117591 *    0.0000    1.000000
      9 Te2   c    0.000000 *  0.000000 *  0.215743 *    0.0000    1.000000
     10 Te1   c    0.333333 *  0.666667 *  0.333333 *    0.0000    1.000000
     11 Te2   c    0.666667 *  0.333333 *  0.450924 *    0.0000    1.000000
     12 Te2   c    0.333333 *  0.666667 *  0.549076 *    0.0000    1.000000
     13 Te1   c    0.666667 *  0.333333 *  0.666667 *    0.0000    1.000000
     14 Te2   c    0.000000 *  0.000000 *  0.784257 *    0.0000    1.000000
     15 Te2   c    0.666667 *  0.333333 *  0.882409 *    0.0000    1.000000

*  General input information                                                   *

  Species output for all configurations :

  Species    Type    Atomic    Atomic    Charge       Radii (Angs)     Library
                     Number     Mass       (e)     Cova   Ionic  VDW   Symbol
    Sb       Core       51     121.75     0.0000   1.460  0.000  2.170
    Te1      Core       52     127.60     0.0000   1.470  0.000  2.200
    Te2      Core       52     127.60     0.0000   1.470  0.000  2.200

  Lattice summation method               =    Ewald
  Accuracy factor for lattice sums       =    8.000

  Time limit = Infinity

  Maximum range for interatomic potentials =         8.000000 Angstroms

  Taper potentials to zero over   8.0000 Angstroms using Voter m =  20.0000

  General interatomic potentials :

Atom  Types   Potential         A         B         C         D     Cutoffs(Ang)
  1     2                                                            Min    Max
Sb   c Te2  c Morse         0.698E-01  2.63     2.99     0.00       0.000 12.000
Sb   c Te1  c Morse         0.526E-01  2.93     3.23     0.00       0.000 12.000
Sb   c Sb   c Morse         0.109      1.47     4.57     0.00       0.000 12.000
Te2  c Te2  c Morse         0.188      1.05     4.02     0.00       0.000 12.000

  Energy shifts for configurations :

      Configuration           Energy (eV)        Scale Factor
             1               -14.6000                 1.000
             2               -14.6000                 1.000
             3               -14.6000                 1.000
             4               -14.6000                 1.000
             5               -14.6000                 1.000
             6               -14.6000                 1.000
             7               -14.6000                 1.000
             8               -14.6000                 1.000
             9               -14.6000                 1.000
            10               -14.6000                 1.000
            11               -14.6000                 1.000
            12               -14.6000                 1.000
            13               -14.6000                 1.000
            14               -14.6000                 1.000
            15               -14.6000                 1.000
            16               -14.6000                 1.000
            17               -14.6000                 1.000
            18               -14.6000                 1.000
            19               -14.6000                 1.000
            20               -14.6000                 1.000
            21               -14.6000                 1.000
            22               -14.6000                 1.000
            23               -14.6000                 1.000
            24               -14.6000                 1.000
            25               -14.6000                 1.000
            26               -14.6000                 1.000
            27               -14.6000                 1.000
            28               -14.6000                 1.000
            29               -14.6000                 1.000
            30               -14.6000                 1.000
            31               -14.6000                 1.000
            32               -14.6000                 1.000
            33               -14.6000                 1.000
            34               -14.6000                 1.000
            35               -14.6000                 1.000
            36               -14.6000                 1.000
            37               -14.6000                 1.000
            38               -14.6000                 1.000
            39               -14.6000                 1.000
            40               -14.6000                 1.000
            41               -14.6000                 1.000
            42               -14.6000                 1.000
            43               -14.6000                 1.000
            44               -14.6000                 1.000
            45               -14.6000                 1.000
            46               -14.6000                 1.000
            47               -14.6000                 1.000
            48               -14.6000                 1.000
            49               -14.6000                 1.000
            50               -14.6000                 1.000
            51               -14.6000                 1.000
            52               -14.6000                 1.000
            53               -14.6000                 1.000
            54               -14.6000                 1.000
            55               -14.6000                 1.000
            56               -14.6000                 1.000
            57               -14.6000                 1.000
            58               -14.6000                 1.000
            59               -14.6000                 1.000
            60               -14.6000                 1.000
[...]
           205               -14.6000                 1.000
           206               -14.6000                 1.000
           207               -14.6000                 1.000
           208               -14.6000                 1.000
           209               -14.6000                 1.000
           210               -14.6000                 1.000
           211               -14.6000                 1.000
           212               -14.6000                 1.000
           213               -14.6000                 1.000
           214               -14.6000                 1.000
           215               -14.6000                 1.000
           216               -14.6000                 1.000
           217               -14.6000                 1.000
           218               -14.6000                 1.000
           219               -14.6000                 1.000

[...]
        211        Energy           -17.94903    -17.81684    -18.02757
        212        Energy           -18.24158    -17.90160    -18.09219
        213        Energy           -18.12995    -17.85788    -18.04020
        214        Energy           -17.71105    -17.70817    -17.89625
        215        Energy           -17.14606    -17.44765    -17.62231
        216        Energy           -16.60068    -17.03764    -17.13490
        217        Elastic Const     64.99800     64.23246     63.79701
        218        Elastic Const     64.99800     64.23246     63.79701
        219        Elastic Const     15.90000     15.36448     17.68853
        220        Elastic Const     15.38046     21.73042     22.06011
        221        Elastic Const     11.74897     12.03735     13.31246
        222        Elastic Const      7.35000      7.07906      6.57117
        223        Elastic Const     11.80000     10.68279     11.31338
        224        Elastic Const     11.80000     10.68279     11.31338
        225        Elastic Const     24.81000     21.25102     20.86845
        226        Structure         10.73980      9.79424     10.74758
        227        Structure         10.73980      9.79424     10.74758
        228        Structure         10.73980      9.79424     10.74758
        229        Structure         23.30000     26.25153     23.30821
        230        Structure         23.30000     26.25153     23.30821
        231        Structure         23.30000     26.25153     23.30821
        232        Structure          0.60320      0.59683      0.61550
        233        Structure          0.60320      0.59683      0.61550
        234        Structure          0.60320      0.59683      0.61550
        235        Structure          0.00000     -0.00319      0.00615
        236        Structure          0.00000     -0.00319      0.00615
        237        Structure          0.00000     -0.00319      0.00615
        238        Structure          0.78457      0.77912      0.78763
        239        Structure          0.78457      0.77912      0.78763
        240        Structure          0.78457      0.77912      0.78763
        241        Structure          0.21543      0.21451      0.22467
        242        Structure          0.21543      0.21451      0.22467
        243        Structure          0.21543      0.21451      0.22467
        244        Structure          4.33000      4.44852      4.34214
        245        Structure          4.33000      4.44852      4.34214
        246        Structure         31.43290     28.35294     31.35238
        247        Structure         90.00000     90.00000     90.00000
        248        Structure         90.00000     90.00000     90.00000
        249        Structure        120.00000    120.00000    120.00000
        250        Structure          0.66667      0.66667      0.66667
        251        Structure          0.33333      0.33333      0.33333
        252        Structure          0.27003      0.26332      0.28201
        253        Structure          0.00000     -0.00000     -0.00000
        254        Structure          0.00000      0.00000      0.00000
        255        Structure          0.39664      0.39664      0.39664
        256        Structure          0.00000      0.00000     -0.00000
        257        Structure          0.00000     -0.00000      0.00000
        258        Structure          0.60336      0.59665      0.61535
        259        Structure          0.33333      0.33333      0.33333
        260        Structure          0.66667      0.66667      0.66667
        261        Structure          0.72997      0.72997      0.72997
        262        Structure          0.33333      0.33333      0.33333
        263        Structure          0.66667      0.66667      0.66667
        264        Structure          0.93669      0.92999      0.94868
        265        Structure          0.00000      0.00000     -0.00000
        266        Structure          0.00000     -0.00000      0.00000
        267        Structure          0.00000     -0.00335      0.00599
        268        Structure          0.33333      0.33333      0.33333
        269        Structure          0.66667      0.66667      0.66667
        270        Structure          0.11759      0.11228      0.12080
        271        Structure          0.00000     -0.00000     -0.00000
        272        Structure          0.00000      0.00000      0.00000
        273        Structure          0.21574      0.21434      0.22451
        274        Structure          0.33333      0.33333      0.33333
        275        Structure          0.66667      0.66667      0.66667
        276        Structure          0.33333      0.32998      0.33933
        277        Structure          0.66667      0.66667      0.66667
        278        Structure          0.33333      0.33333      0.33333
        279        Structure          0.45092      0.44562      0.45414
        280        Structure          0.33333      0.33333      0.33333
        281        Structure          0.66667      0.66667      0.66667
        282        Structure          0.54908      0.54768      0.55785
        283        Structure          0.66667      0.66667      0.66667
        284        Structure          0.33333      0.33333      0.33333
        285        Structure          0.66667      0.66331      0.67266
        286        Structure          0.00000      0.00000     -0.00000
        287        Structure          0.00000     -0.00000      0.00000
        288        Structure          0.78426      0.77895      0.78747
        289        Structure          0.66667      0.66667      0.66667
        290        Structure          0.33333      0.33333      0.33333
        291        Structure          0.88241      0.88101      0.89118

  Maximum range for interatomic potentials =         8.000000 Angstroms

  Taper potentials to zero over   8.0000 Angstroms using Voter m =  20.0000

  General interatomic potentials :

Atom  Types   Potential         A         B         C         D     Cutoffs(Ang)
  1     2                                                            Min    Max
Sb   c Te2  c Morse         0.680E-01  2.13     3.11     0.00       0.000 12.000
Sb   c Te1  c Morse         0.728E-01  4.11     3.08     0.00       0.000 12.000
Sb   c Sb   c Morse         0.166      1.56     4.42     0.00       0.000 12.000
Te2  c Te2  c Morse         0.113      1.18     4.20     0.00       0.000 12.000

  Energy shifts for configurations :

      Configuration           Energy (eV)        Scale Factor
             1               -14.8308                 1.000
             2               -14.8308                 1.000
             3               -14.8308                 1.000
             4               -14.8308                 1.000
             5               -14.8308                 1.000
             6               -14.8308                 1.000
             7               -14.8308                 1.000
             8               -14.8308                 1.000
             9               -14.8308                 1.000
            10               -14.8308                 1.000
            11               -14.8308                 1.000
            12               -14.8308                 1.000
            13               -14.8308                 1.000
            14               -14.8308                 1.000
            15               -14.8308                 1.000
            16               -14.8308                 1.000
            17               -14.8308                 1.000
            18               -14.8308                 1.000
            19               -14.8308                 1.000
            20               -14.8308                 1.000
            21               -14.8308                 1.000
            22               -14.8308                 1.000
            23               -14.8308                 1.000
            24               -14.8308                 1.000
            25               -14.8308                 1.000
            26               -14.8308                 1.000
            27               -14.8308                 1.000
            28               -14.8308                 1.000
            29               -14.8308                 1.000
            30               -14.8308                 1.000
            31               -14.8308                 1.000
            32               -14.8308                 1.000
            33               -14.8308                 1.000
            34               -14.8308                 1.000
            35               -14.8308                 1.000
            36               -14.8308                 1.000
            37               -14.8308                 1.000
            38               -14.8308                 1.000
            39               -14.8308                 1.000
            40               -14.8308                 1.000
            41               -14.8308                 1.000
            42               -14.8308                 1.000
            43               -14.8308                 1.000
            44               -14.8308                 1.000
            45               -14.8308                 1.000
            46               -14.8308                 1.000
            47               -14.8308                 1.000
            48               -14.8308                 1.000
            49               -14.8308                 1.000
            50               -14.8308                 1.000
            51               -14.8308                 1.000
            52               -14.8308                 1.000
            53               -14.8308                 1.000
            54               -14.8308                 1.000
            55               -14.8308                 1.000
            56               -14.8308                 1.000
            57               -14.8308                 1.000
            58               -14.8308                 1.000
            59               -14.8308                 1.000
            60               -14.8308                 1.000
[...]
           205               -14.8308                 1.000
           206               -14.8308                 1.000
           207               -14.8308                 1.000
           208               -14.8308                 1.000
           209               -14.8308                 1.000
           210               -14.8308                 1.000
           211               -14.8308                 1.000
           212               -14.8308                 1.000
           213               -14.8308                 1.000
           214               -14.8308                 1.000
           215               -14.8308                 1.000
           216               -14.8308                 1.000
           217               -14.8308                 1.000
           218               -14.8308                 1.000
           219               -14.8308                 1.000

  Total time to end of fitting =    3806.8819 seconds

*  Output for configuration   1                                                *

  Components of energy :

  Interatomic potentials     =          -0.80589713 eV
  Monopole - monopole (real) =           0.00000000 eV
  Monopole - monopole (recip)=           0.00000000 eV
  Monopole - monopole (total)=           0.00000000 eV
  Energy shift               =         -14.83079725 eV
  Total lattice energy       =         -15.63669438 eV
  Total lattice energy       =           -1508.7020 kJ/(mole unit cells)

  Elastic Constant Matrix: (Units=GPa)

  Indices      1         2         3         4         5         6
       1    -89.8212  -48.5240   29.0554   -0.0000   -0.8534    0.0000
       2    -48.5240  -89.8212   29.0554    0.0000    0.8534    0.0000
       3     29.0554   29.0554    3.9244    0.0000    0.0000    0.0000
       4     -0.0000    0.0000    0.0000   -5.8149   -0.0000    0.8534
       5     -0.8534    0.8534    0.0000   -0.0000   -5.8149    0.0000
       6      0.0000    0.0000    0.0000    0.8534    0.0000  -20.6486

  Elastic Compliance Matrix: (Units=1/GPa)

[...]

 Mechanical properties :

  Convention :                    Reuss         Voigt         Hill
  Bulk  Modulus (GPa)     =       9.04416     -17.39384      -4.17484
  Shear Modulus (GPa)     =     -12.60332     -18.80933     -15.70633
  Velocity S-wave (km/s)  =      -4.54111      -5.54761      -5.06940
  Velocity P-wave (km/s)  =       3.56334       8.33634       6.41062
  Compressibility (1/GPa) =    0.11056858
  Stress axis :                     x             y             z
  Youngs Moduli (GPa)     =     -76.56601     -76.56601      16.12889
  Poissons Ratio (x)      =                     0.86534      -0.21002
  Poissons Ratio (y)      =       0.86534                    -0.21002
  Poissons Ratio (z)      =       0.99700       0.99700

  Piezoelectric Strain Matrix: (Units=C/m**2)

  Indices      1         2         3         4         5         6
       x    -0.00000  -0.00000  -0.00000  -0.00000  -0.00000  -0.00000
       y    -0.00000  -0.00000  -0.00000  -0.00000  -0.00000  -0.00000
       z    -0.00000  -0.00000  -0.00000  -0.00000  -0.00000  -0.00000

  Piezoelectric Stress Matrix: (Units=10**-11 C/N)

[...]

  Static dielectric constant tensor :

              x         y         z
       x     1.00000   0.00000   0.00000
       y     0.00000   1.00000   0.00000
       z     0.00000   0.00000   1.00000

  Static refractive indices :

    1 =    1.00000      2 =    1.00000      3 =    1.00000

  Time to end of properties =    3806.8899 seconds

[...]

*  Output for configuration 219                                                *

  Components of energy :

  Interatomic potentials     =          -9.81685445 eV
  Monopole - monopole (real) =           0.00000000 eV
  Monopole - monopole (recip)=           0.00000000 eV
  Monopole - monopole (total)=           0.00000000 eV
  Energy shift               =         -14.83079725 eV
  Total lattice energy       =         -24.64765170 eV
  Total lattice energy       =           -2378.1216 kJ/(mole unit cells)

  Elastic Constant Matrix: (Units=GPa)

[...]

  Elastic Compliance Matrix: (Units=1/GPa)

  Indices      1         2         3         4         5         6
       1    0.022258 -0.007065 -0.011434 -0.017031 -0.000000  0.000000
       2   -0.007065  0.022258 -0.011434  0.017031  0.000000 -0.000000
       3   -0.011434 -0.011434  0.073745  0.000000 -0.000000  0.000000
       4   -0.017031  0.017031  0.000000  0.108176 -0.000000 -0.000000
       5   -0.000000  0.000000 -0.000000 -0.000000  0.108176 -0.034063
       6    0.000000 -0.000000  0.000000 -0.000000 -0.034063  0.058645

 Mechanical properties :

  Convention :                    Reuss         Voigt         Hill
  Bulk  Modulus (GPa)     =      17.12516      26.96140      22.04328
  Shear Modulus (GPa)     =      10.58002      15.13888      12.85945
  Velocity S-wave (km/s)  =       4.16015       4.97637       4.58645
  Velocity P-wave (km/s)  =       7.14767       8.78194       8.00661
  Compressibility (1/GPa) =    0.05839360
  Stress axis :                     x             y             z
  Youngs Moduli (GPa)     =      44.92794      44.92794      13.56024
  Poissons Ratio (x)      =                     0.31740       0.15505
  Poissons Ratio (y)      =       0.31740                     0.15505
  Poissons Ratio (z)      =       0.51373       0.51373

  Piezoelectric Strain Matrix: (Units=C/m**2)

[...]

  Piezoelectric Stress Matrix: (Units=10**-11 C/N)

  Indices      1         2         3         4         5         6
       x     0.00000   0.00000   0.00000   0.00000   0.00000   0.00000
       y     0.00000   0.00000   0.00000   0.00000   0.00000   0.00000
       z     0.00000   0.00000   0.00000   0.00000   0.00000   0.00000

  Static dielectric constant tensor :

              x         y         z
       x     1.00000   0.00000   0.00000
       y     0.00000   1.00000   0.00000
       z     0.00000   0.00000   1.00000

  Static refractive indices :

    1 =    1.00000      2 =    1.00000      3 =    1.00000

  Time to end of properties =    3807.5180 seconds

  Timing analysis for GULP :

  Task / Subroutine                                          Time (Seconds)
  Calculation of real space energy and derivatives             3624.9105
  Sum of squares for fitting                                   2528.8183
  Global summation overhead                                       1.4961

  Dump file written as sb2te3_17.res

  Job Finished at 15:42.56 23rd July       2010