  Job Started  at 12:38.39 21st July       2010

  Number of CPUs =     1

  Total number of configurations input = 219

*  Input for Configuration =   1                                               *

  Formula = Sb2Te3

  Number of irreducible atoms/shells =       5

  Total number atoms/shells =       5

  Dimensionality = 3               :  Bulk

  Cartesian lattice vectors (Angstroms) :

       -2.504286    0.000000   10.443767
        1.252143   -2.168775   10.443767
        1.252143    2.168775   10.443767

  Cell parameters (Angstroms/Degrees):

  a =      10.7398    alpha =  23.3006
  b =      10.7398    beta  =  23.3006
  c =      10.7398    gamma =  23.3006

  Initial cell volume =         170.167643 Angs**3

  Temperature of configuration =  0.000     K

  Pressure of configuration =         0.000 GPa

  Fractional coordinates of asymmetric unit :

   No.  Atomic       x           y          z         Charge      Occupancy
        Label      (Frac)      (Frac)     (Frac)        (e)         (Frac)
      1 Sb    c    0.369021    0.369021    0.369021      0.0000    1.000000
      2 Sb    c    0.603203    0.603203    0.603203      0.0000    1.000000
      3 Te1   c    0.000000    0.000000    0.000000      0.0000    1.000000
      4 Te2   c    0.784571    0.784571    0.784571      0.0000    1.000000
      5 Te2   c    0.215429    0.215429    0.215429      0.0000    1.000000

[...]

   No.  Atomic       x           y          z         Charge      Occupancy
        Label      (Frac)      (Frac)     (Frac)        (e)         (Frac)
      1 Sb    c    0.666667    0.333333    0.063305      0.0000    1.000000
      2 Sb    c    0.666667    0.333333    0.270028      0.0000    1.000000
      3 Sb    c    0.000000    0.000000    0.396639      0.0000    1.000000
      4 Sb    c    0.000000    0.000000    0.603361      0.0000    1.000000
      5 Sb    c    0.333333    0.666667    0.729972      0.0000    1.000000
      6 Sb    c    0.333333    0.666667    0.936695      0.0000    1.000000
      7 Te1   c    0.000000    0.000000    0.000000      0.0000    1.000000
      8 Te2   c    0.333333    0.666667    0.117591      0.0000    1.000000
      9 Te2   c    0.000000    0.000000    0.215743      0.0000    1.000000
     10 Te1   c    0.333333    0.666667    0.333333      0.0000    1.000000
     11 Te2   c    0.666667    0.333333    0.450924      0.0000    1.000000
     12 Te2   c    0.333333    0.666667    0.549076      0.0000    1.000000
     13 Te1   c    0.666667    0.333333    0.666667      0.0000    1.000000
     14 Te2   c    0.000000    0.000000    0.784257      0.0000    1.000000
     15 Te2   c    0.666667    0.333333    0.882409      0.0000    1.000000

[...]

   No.  Atomic       x           y          z         Charge      Occupancy
        Label      (Frac)      (Frac)     (Frac)        (e)         (Frac)
      1 Sb    c    0.396797    0.396797    0.396797      0.0000    1.000000
      2 Sb    c    0.603203 *  0.603203 *  0.603203 *    0.0000    1.000000
      3 Te1   c    0.000000 *  0.000000 *  0.000000 *    0.0000    1.000000
      4 Te2   c    0.784571 *  0.784571 *  0.784571 *    0.0000    1.000000
      5 Te2   c    0.215429 *  0.215429 *  0.215429 *    0.0000    1.000000

*  Input for Configuration = 219                                               *

  Formula = Sb6Te9

  Number of irreducible atoms/shells =      15

  Total number atoms/shells =      15

  Dimensionality = 3               :  Bulk

  Cartesian lattice vectors (Angstroms) :

[...]

  Cell parameters (Angstroms/Degrees):

  a =       4.3300    alpha =  90.0000
  b =       4.3300    beta  =  90.0000
  c =      31.4329    gamma = 120.0000

  Initial cell volume =         510.376742 Angs**3

  Temperature of configuration =  0.000     K

  Pressure of configuration =         0.000 GPa

  Fractional coordinates of asymmetric unit :

   No.  Atomic       x           y          z         Charge      Occupancy
        Label      (Frac)      (Frac)     (Frac)        (e)         (Frac)
      1 Sb    c    0.666667    0.333333    0.063305      0.0000    1.000000
      2 Sb    c    0.666667 *  0.333333 *  0.270028 *    0.0000    1.000000
      3 Sb    c    0.000000 *  0.000000 *  0.396639 *    0.0000    1.000000
      4 Sb    c    0.000000 *  0.000000 *  0.603361 *    0.0000    1.000000
      5 Sb    c    0.333333 *  0.666667 *  0.729972 *    0.0000    1.000000
      6 Sb    c    0.333333 *  0.666667 *  0.936695 *    0.0000    1.000000
      7 Te1   c    0.000000 *  0.000000 *  0.000000 *    0.0000    1.000000
      8 Te2   c    0.333333 *  0.666667 *  0.117591 *    0.0000    1.000000
      9 Te2   c    0.000000 *  0.000000 *  0.215743 *    0.0000    1.000000
     10 Te1   c    0.333333 *  0.666667 *  0.333333 *    0.0000    1.000000
     11 Te2   c    0.666667 *  0.333333 *  0.450924 *    0.0000    1.000000
     12 Te2   c    0.333333 *  0.666667 *  0.549076 *    0.0000    1.000000
     13 Te1   c    0.666667 *  0.333333 *  0.666667 *    0.0000    1.000000
     14 Te2   c    0.000000 *  0.000000 *  0.784257 *    0.0000    1.000000
     15 Te2   c    0.666667 *  0.333333 *  0.882409 *    0.0000    1.000000

*  General input information                                                   *

  Species output for all configurations :

  Species    Type    Atomic    Atomic    Charge       Radii (Angs)     Library
                     Number     Mass       (e)     Cova   Ionic  VDW   Symbol
    Sb       Core       51     121.75     0.0000   1.460  0.000  2.170
    Te1      Core       52     127.60     0.0000   1.470  0.000  2.200
    Te2      Core       52     127.60     0.0000   1.470  0.000  2.200

  Lattice summation method               =    Ewald
  Accuracy factor for lattice sums       =    8.000

  Time limit = Infinity

  Maximum range for interatomic potentials =         8.000000 Angstroms

  Taper potentials to zero over   8.0000 Angstroms using Voter m =  20.0000

  General interatomic potentials :

Atom  Types   Potential         A         B         C         D     Cutoffs(Ang)
  1     2                                                            Min    Max
Sb   c Te2  c Morse         0.700E-01  3.20     3.08     0.00       0.000 12.000
Sb   c Te1  c Morse         0.114      2.30     3.26     0.00       0.000 12.000
Sb   c Sb   c Morse         0.959E-01  1.17     4.77     0.00       0.000 12.000
Te1  c Te1  c Morse         0.726E-01  1.03     4.28     0.00       0.000 12.000
Te1  c Te2  c Morse         0.139     0.684     4.30     0.00       0.000 12.000
Te2  c Te2  c Morse         0.109      1.44     4.03     0.00       0.000 12.000

  Energy shifts for configurations :

      Configuration           Energy (eV)        Scale Factor
             1               -14.6000                 1.000
             2               -14.6000                 1.000
             3               -14.6000                 1.000
             4               -14.6000                 1.000
             5               -14.6000                 1.000
             6               -14.6000                 1.000
             7               -14.6000                 1.000
             8               -14.6000                 1.000
             9               -14.6000                 1.000
            10               -14.6000                 1.000
            11               -14.6000                 1.000
            12               -14.6000                 1.000
            13               -14.6000                 1.000
            14               -14.6000                 1.000
            15               -14.6000                 1.000
            16               -14.6000                 1.000
            17               -14.6000                 1.000
            18               -14.6000                 1.000
            19               -14.6000                 1.000
            20               -14.6000                 1.000
            21               -14.6000                 1.000
            22               -14.6000                 1.000
            23               -14.6000                 1.000
            24               -14.6000                 1.000
            25               -14.6000                 1.000
            26               -14.6000                 1.000
            27               -14.6000                 1.000
            28               -14.6000                 1.000
            29               -14.6000                 1.000
            30               -14.6000                 1.000
            31               -14.6000                 1.000
            32               -14.6000                 1.000
            33               -14.6000                 1.000
            34               -14.6000                 1.000
            35               -14.6000                 1.000
            36               -14.6000                 1.000
            37               -14.6000                 1.000
            38               -14.6000                 1.000
            39               -14.6000                 1.000
            40               -14.6000                 1.000
            41               -14.6000                 1.000
            42               -14.6000                 1.000
            43               -14.6000                 1.000
            44               -14.6000                 1.000
            45               -14.6000                 1.000
            46               -14.6000                 1.000
            47               -14.6000                 1.000
            48               -14.6000                 1.000
            49               -14.6000                 1.000
            50               -14.6000                 1.000
            51               -14.6000                 1.000
            52               -14.6000                 1.000
            53               -14.6000                 1.000
            54               -14.6000                 1.000
            55               -14.6000                 1.000
            56               -14.6000                 1.000
            57               -14.6000                 1.000
            58               -14.6000                 1.000
            59               -14.6000                 1.000
            60               -14.6000                 1.000
[...]
           205               -14.6000                 1.000
           206               -14.6000                 1.000
           207               -14.6000                 1.000
           208               -14.6000                 1.000
           209               -14.6000                 1.000
           210               -14.6000                 1.000
           211               -14.6000                 1.000
           212               -14.6000                 1.000
           213               -14.6000                 1.000
           214               -14.6000                 1.000
           215               -14.6000                 1.000
           216               -14.6000                 1.000
           217               -14.6000                 1.000
           218               -14.6000                 1.000
[...]
             6               -13.6670                 1.000
             7               -13.6670                 1.000
             8               -13.6670                 1.000
             9               -13.6670                 1.000
            10               -13.6670                 1.000
            11               -13.6670                 1.000
            12               -13.6670                 1.000
            13               -13.6670                 1.000
            14               -13.6670                 1.000
            15               -13.6670                 1.000
            16               -13.6670                 1.000
            17               -13.6670                 1.000
            18               -13.6670                 1.000
            19               -13.6670                 1.000
            20               -13.6670                 1.000
            21               -13.6670                 1.000
            22               -13.6670                 1.000
            23               -13.6670                 1.000
            24               -13.6670                 1.000
            25               -13.6670                 1.000
            26               -13.6670                 1.000
            27               -13.6670                 1.000
            28               -13.6670                 1.000
            29               -13.6670                 1.000
            30               -13.6670                 1.000
            31               -13.6670                 1.000
            32               -13.6670                 1.000
            33               -13.6670                 1.000
            34               -13.6670                 1.000
            35               -13.6670                 1.000
            36               -13.6670                 1.000
            37               -13.6670                 1.000
            38               -13.6670                 1.000
            39               -13.6670                 1.000
            40               -13.6670                 1.000
            41               -13.6670                 1.000
            42               -13.6670                 1.000
            43               -13.6670                 1.000
            44               -13.6670                 1.000
            45               -13.6670                 1.000
            46               -13.6670                 1.000
            47               -13.6670                 1.000
            48               -13.6670                 1.000
            49               -13.6670                 1.000
            50               -13.6670                 1.000
            51               -13.6670                 1.000
            52               -13.6670                 1.000
            53               -13.6670                 1.000
            54               -13.6670                 1.000
            55               -13.6670                 1.000
            56               -13.6670                 1.000
            57               -13.6670                 1.000
            58               -13.6670                 1.000
            59               -13.6670                 1.000
            60               -13.6670                 1.000
[...]
           205               -13.6670                 1.000
           206               -13.6670                 1.000
           207               -13.6670                 1.000
           208               -13.6670                 1.000
           209               -13.6670                 1.000
           210               -13.6670                 1.000
           211               -13.6670                 1.000
           212               -13.6670                 1.000
           213               -13.6670                 1.000
           214               -13.6670                 1.000
           215               -13.6670                 1.000
           216               -13.6670                 1.000
           217               -13.6670                 1.000
           218               -13.6670                 1.000
           219               -13.6670                 1.000

  Total time to end of fitting =    1564.6698 seconds

*  Output for configuration   1                                                *

!! WARNING : No variables to optimise - single point performed

  Components of energy :

  Interatomic potentials     =          -2.87403524 eV
  Monopole - monopole (real) =           0.00000000 eV
  Monopole - monopole (recip)=           0.00000000 eV
  Monopole - monopole (total)=           0.00000000 eV
  Energy shift               =         -13.66698196 eV
  Total lattice energy       =         -16.54101720 eV
  Total lattice energy       =           -1595.9553 kJ/(mole unit cells)

  Elastic Constant Matrix: (Units=GPa)

  Indices      1         2         3         4         5         6
       1      5.1327   -6.4291    3.2597    0.0000   -6.6047    0.0000
       2     -6.4291    5.1327    3.2597    0.0000    6.6047    0.0000
       3      3.2597    3.2597   17.3598    0.0000    0.0000    0.0000
       4      0.0000    0.0000    0.0000   -9.1036    0.0000    6.6047
       5     -6.6047    6.6047    0.0000    0.0000   -9.1036    0.0000
       6      0.0000    0.0000    0.0000    6.6047    0.0000    5.7809

  Elastic Compliance Matrix: (Units=1/GPa)

[...]

 Mechanical properties :

  Convention :                    Reuss         Voigt         Hill
  Bulk  Modulus (GPa)     =      -2.14655       3.08954       0.47149
  Shear Modulus (GPa)     =     -14.10025      -0.64960      -7.37492
  Velocity S-wave (km/s)  =      -4.80322      -1.03096      -3.47375
  Velocity P-wave (km/s)  =       5.85435       1.90734       3.91379
  Compressibility (1/GPa) =   -0.46586289
  Stress axis :                     x             y             z
  Youngs Moduli (GPa)     =      -5.72333      -5.72333      33.75260
  Poissons Ratio (x)      =                    -1.27067      -2.51447
  Poissons Ratio (y)      =      -1.27067                    -2.51447
  Poissons Ratio (z)      =       0.42637       0.42637

  Piezoelectric Strain Matrix: (Units=C/m**2)

  Indices      1         2         3         4         5         6
       x    -0.00000  -0.00000  -0.00000  -0.00000  -0.00000  -0.00000
       y    -0.00000  -0.00000  -0.00000  -0.00000  -0.00000  -0.00000
       z    -0.00000  -0.00000  -0.00000  -0.00000  -0.00000  -0.00000

  Piezoelectric Stress Matrix: (Units=10**-11 C/N)

[...]

  Static dielectric constant tensor :

              x         y         z
       x     1.00000   0.00000   0.00000
       y     0.00000   1.00000   0.00000
       z     0.00000   0.00000   1.00000

  Static refractive indices :

    1 =    1.00000      2 =    1.00000      3 =    1.00000

  Time to end of properties =    1564.6738 seconds

[...]

!! WARNING : No variables to optimise - single point performed

[...]

  Time to end of properties =    1565.3258 seconds

[...]

  Number of variables =     18

  Maximum number of calculations  =          1000
  Maximum Hessian update interval =            10
  Maximum step size               =   1.000000000
  Maximum parameter tolerance     =   0.000010000
  Maximum function  tolerance     =   0.000010000
  Maximum gradient  tolerance     =   0.001000000
  Maximum gradient  component     =   0.010000000

  Symmetry not applied to optimisation

  Cell parameters to be optimised using strains

  Newton-Raphson optimiser to be used

  BFGS hessian update to be used

[...]

  Start of bulk optimisation :

[...]

  **** Optimisation achieved ****

  Final energy =     -18.33835624 eV
  Final Gnorm  =       0.00003563

[...]

  Final fractional coordinates of atoms :

   No.  Atomic        x           y          z          Radius
        Label       (Frac)      (Frac)     (Frac)       (Angs)
     1  Sb    c     0.396797    0.396797    0.396797    0.000000
     2  Sb    c     0.600511    0.600511    0.600511    0.000000
     3  Te1   c     0.998654    0.998654    0.998654    0.000000
     4  Te2   c     0.783116    0.783116    0.783116    0.000000
     5  Te2   c     0.214192    0.214192    0.214192    0.000000

  Final Cartesian lattice vectors (Angstroms) :

[...]

  Final cell parameters and derivatives :

       a           10.282387 Angstrom     dE/de1(xx)    -0.000132 eV/strain
       b           10.282387 Angstrom     dE/de2(yy)     0.000079 eV/strain
       c           10.282387 Angstrom     dE/de3(zz)     0.000085 eV/strain
       alpha       24.954632 Degrees      dE/de4(yz)    -0.000006 eV/strain
       beta        24.954632 Degrees      dE/de5(xz)    -0.000027 eV/strain
       gamma       24.954632 Degrees      dE/de6(xy)    -0.000045 eV/strain

  Primitive cell volume =           170.231325 Angs**3

  Density of cell =      6.109405 g/cm**3

  Non-primitive cell volume =           170.231325 Angs**3

  Final internal derivatives :

   No.  Atomic          x             y             z           Radius
        Label          (eV)          (eV)          (eV)        (eV/Angs)
      1 Sb    c       0.000000      0.000000      0.000000      0.000000
      2 Sb    c       0.000341      0.000341      0.000341      0.000000
      3 Te1   c       0.000000      0.000000      0.000000      0.000000
      4 Te2   c      -0.000069     -0.000069     -0.000069      0.000000
      5 Te2   c       0.000069      0.000069      0.000069      0.000000
  Maximum abs         0.000341      0.000341      0.000341      0.000000

[...]

  Time to end of optimisation =    1565.5418 seconds

*  Output for configuration 219                                                *

[...]

  Number of variables =     48

  Maximum number of calculations  =          1000
  Maximum Hessian update interval =            10
  Maximum step size               =   1.000000000
  Maximum parameter tolerance     =   0.000010000
  Maximum function  tolerance     =   0.000010000
  Maximum gradient  tolerance     =   0.001000000
  Maximum gradient  component     =   0.010000000

  Symmetry not applied to optimisation

  Cell parameters to be optimised using strains

  Newton-Raphson optimiser to be used

  BFGS hessian update to be used

  Dumpfile to be written after every cycle

  Start of bulk optimisation :

  ** Hessian calculated **

  **** Optimisation achieved ****

  Final energy =     -27.68110481 eV
  Final Gnorm  =       0.00007753

  Components of energy :

  Interatomic potentials     =         -14.01412285 eV
  Monopole - monopole (real) =           0.00000000 eV
  Monopole - monopole (recip)=           0.00000000 eV
  Monopole - monopole (total)=           0.00000000 eV
  Energy shift               =         -13.66698196 eV
  Total lattice energy       =         -27.68110481 eV
  Total lattice energy       =           -2670.8035 kJ/(mole unit cells)

  Final fractional coordinates of atoms :

   No.  Atomic        x           y          z          Radius
        Label       (Frac)      (Frac)     (Frac)       (Angs)
     1  Sb    c     0.666667    0.333333    0.063305    0.000000
     2  Sb    c     0.666667    0.333333    0.267020    0.000000
     3  Sb    c     1.000000    0.000000    0.396639    0.000000
     4  Sb    c     0.000000    1.000000    0.600353    0.000000
     5  Sb    c     0.333333    0.666667    0.729972    0.000000
     6  Sb    c     0.333333    0.666667    0.933686    0.000000
     7  Te1   c     0.000000    1.000000    0.998496    0.000000
     8  Te2   c     0.333333    0.666667    0.116291    0.000000
     9  Te2   c     0.000000    1.000000    0.214034    0.000000
    10  Te1   c     0.333333    0.666667    0.331829    0.000000
    11  Te2   c     0.666667    0.333333    0.449624    0.000000
    12  Te2   c     0.333333    0.666667    0.547368    0.000000
    13  Te1   c     0.666667    0.333333    0.665162    0.000000
    14  Te2   c     1.000000    0.000000    0.782957    0.000000
    15  Te2   c     0.666667    0.333333    0.880701    0.000000

  Final Cartesian lattice vectors (Angstroms) :

        4.443095    0.000000    0.000000
       -2.221548    3.847833   -0.000000
        0.000000   -0.000000   29.871514

  Final cell parameters and derivatives :

       a            4.443095 Angstrom     dE/de1(xx)     0.000106 eV/strain
       b            4.443095 Angstrom     dE/de2(yy)     0.000106 eV/strain
       c           29.871514 Angstrom     dE/de3(zz)    -0.000993 eV/strain
       alpha       90.000000 Degrees      dE/de4(yz)     0.000000 eV/strain
       beta        90.000000 Degrees      dE/de5(xz)    -0.000000 eV/strain
       gamma      120.000000 Degrees      dE/de6(xy)    -0.000000 eV/strain

  Primitive cell volume =           510.692036 Angs**3

  Density of cell =      6.109428 g/cm**3

  Non-primitive cell volume =           510.692036 Angs**3

  Final internal derivatives :

   No.  Atomic          x             y             z           Radius
        Label          (eV)          (eV)          (eV)        (eV/Angs)
      1 Sb    c       0.000000      0.000000      0.000000      0.000000
      2 Sb    c      -0.000000      0.000000      0.000927      0.000000
      3 Sb    c       0.000000     -0.000000     -0.000927      0.000000
      4 Sb    c      -0.000000      0.000000      0.000927      0.000000
      5 Sb    c       0.000000     -0.000000     -0.000927      0.000000
      6 Sb    c      -0.000000      0.000000      0.000927      0.000000
      7 Te1   c      -0.000000     -0.000000     -0.000000      0.000000
      8 Te2   c      -0.000000      0.000000     -0.001194      0.000000
      9 Te2   c       0.000000     -0.000000      0.001194      0.000000
     10 Te1   c       0.000000     -0.000000     -0.000000      0.000000
     11 Te2   c      -0.000000      0.000000     -0.001194      0.000000
     12 Te2   c       0.000000     -0.000000      0.001194      0.000000
     13 Te1   c       0.000000      0.000000     -0.000000      0.000000
     14 Te2   c      -0.000000      0.000000     -0.001194      0.000000
     15 Te2   c       0.000000     -0.000000      0.001194      0.000000
  Maximum abs         0.000000      0.000000      0.001194      0.000000

  Elastic Constant Matrix: (Units=GPa)

[...]

  Elastic Compliance Matrix: (Units=1/GPa)

  Indices      1         2         3         4         5         6
       1    0.044113 -0.016611 -0.022926 -0.041146  0.000000  0.000000
       2   -0.016611  0.044113 -0.022926  0.041146 -0.000000 -0.000000
       3   -0.022926 -0.022926  0.071526 -0.000000  0.000000 -0.000000
       4   -0.041146  0.041146 -0.000000  0.104612  0.000000 -0.000000
       5    0.000000 -0.000000  0.000000  0.000000  0.104612 -0.082293
       6    0.000000 -0.000000 -0.000000 -0.000000 -0.082293  0.121447

 Mechanical properties :

  Convention :                    Reuss         Voigt         Hill
  Bulk  Modulus (GPa)     =      28.71211      31.81297      30.26254
  Shear Modulus (GPa)     =       7.97504      16.50910      12.24207
  Velocity S-wave (km/s)  =       3.61298       5.19830       4.47638
  Velocity P-wave (km/s)  =       8.02504       9.38625       8.73221
  Compressibility (1/GPa) =    0.03482851
  Stress axis :                     x             y             z
  Youngs Moduli (GPa)     =      22.66909      22.66909      13.98085
  Poissons Ratio (x)      =                     0.37655       0.32052
  Poissons Ratio (y)      =       0.37655                     0.32052
  Poissons Ratio (z)      =       0.51970       0.51970

  Piezoelectric Strain Matrix: (Units=C/m**2)

[...]

  Piezoelectric Stress Matrix: (Units=10**-11 C/N)

  Indices      1         2         3         4         5         6
       x     0.00000   0.00000   0.00000   0.00000   0.00000   0.00000
       y     0.00000   0.00000   0.00000   0.00000   0.00000   0.00000
       z     0.00000   0.00000   0.00000   0.00000   0.00000   0.00000

  Static dielectric constant tensor :

              x         y         z
       x     1.00000   0.00000   0.00000
       y     0.00000   1.00000   0.00000
       z     0.00000   0.00000   1.00000

  Static refractive indices :

    1 =    1.00000      2 =    1.00000      3 =    1.00000

  Time to end of optimisation =    1565.7859 seconds

  Timing analysis for GULP :

  Task / Subroutine                                          Time (Seconds)
  Calculation of real space energy and derivatives             1509.8984
  Sum of squares for fitting                                     38.1184
  Global summation overhead                                       0.8001

  Dump file written as sb2te3_7.res

  **** GULP has completed with 217 warnings - beware! ****

  Job Finished at 13:04.57 21st July       2010