  Job Started  at 22:56.40 22nd July       2010

  Number of CPUs =     1

  Total number of configurations input = 219

*  Input for Configuration =   1                                               *

  Formula = Sb2Te3

  Number of irreducible atoms/shells =       5

  Total number atoms/shells =       5

  Dimensionality = 3               :  Bulk

  Cartesian lattice vectors (Angstroms) :

       -2.504286    0.000000   10.443767
        1.252143   -2.168775   10.443767
        1.252143    2.168775   10.443767

  Cell parameters (Angstroms/Degrees):

  a =      10.7398    alpha =  23.3006
  b =      10.7398    beta  =  23.3006
  c =      10.7398    gamma =  23.3006

  Initial cell volume =         170.167643 Angs**3

  Temperature of configuration =  0.000     K

  Pressure of configuration =         0.000 GPa

  Fractional coordinates of asymmetric unit :

   No.  Atomic       x           y          z         Charge      Occupancy
        Label      (Frac)      (Frac)     (Frac)        (e)         (Frac)
      1 Sb    c    0.369021    0.369021    0.369021      0.0000    1.000000
      2 Sb    c    0.603203    0.603203    0.603203      0.0000    1.000000
      3 Te1   c    0.000000    0.000000    0.000000      0.0000    1.000000
      4 Te2   c    0.784571    0.784571    0.784571      0.0000    1.000000
      5 Te2   c    0.215429    0.215429    0.215429      0.0000    1.000000

[...]

   No.  Atomic       x           y          z         Charge      Occupancy
        Label      (Frac)      (Frac)     (Frac)        (e)         (Frac)
      1 Sb    c    0.666667    0.333333    0.063305      0.0000    1.000000
      2 Sb    c    0.666667    0.333333    0.270028      0.0000    1.000000
      3 Sb    c    0.000000    0.000000    0.396639      0.0000    1.000000
      4 Sb    c    0.000000    0.000000    0.603361      0.0000    1.000000
      5 Sb    c    0.333333    0.666667    0.729972      0.0000    1.000000
      6 Sb    c    0.333333    0.666667    0.936695      0.0000    1.000000
      7 Te1   c    0.000000    0.000000    0.000000      0.0000    1.000000
      8 Te2   c    0.333333    0.666667    0.117591      0.0000    1.000000
      9 Te2   c    0.000000    0.000000    0.215743      0.0000    1.000000
     10 Te1   c    0.333333    0.666667    0.333333      0.0000    1.000000
     11 Te2   c    0.666667    0.333333    0.450924      0.0000    1.000000
     12 Te2   c    0.333333    0.666667    0.549076      0.0000    1.000000
     13 Te1   c    0.666667    0.333333    0.666667      0.0000    1.000000
     14 Te2   c    0.000000    0.000000    0.784257      0.0000    1.000000
     15 Te2   c    0.666667    0.333333    0.882409      0.0000    1.000000

[...]

   No.  Atomic       x           y          z         Charge      Occupancy
        Label      (Frac)      (Frac)     (Frac)        (e)         (Frac)
      1 Sb    c    0.396797    0.396797    0.396797      0.0000    1.000000
      2 Sb    c    0.603203 *  0.603203 *  0.603203 *    0.0000    1.000000
      3 Te1   c    0.000000 *  0.000000 *  0.000000 *    0.0000    1.000000
      4 Te2   c    0.784571 *  0.784571 *  0.784571 *    0.0000    1.000000
      5 Te2   c    0.215429 *  0.215429 *  0.215429 *    0.0000    1.000000

*  Input for Configuration = 219                                               *

  Formula = Sb6Te9

  Number of irreducible atoms/shells =      15

  Total number atoms/shells =      15

  Dimensionality = 3               :  Bulk

  Cartesian lattice vectors (Angstroms) :

[...]

  Cell parameters (Angstroms/Degrees):

  a =       4.3300    alpha =  90.0000
  b =       4.3300    beta  =  90.0000
  c =      31.4329    gamma = 120.0000

  Initial cell volume =         510.376742 Angs**3

  Temperature of configuration =  0.000     K

  Pressure of configuration =         0.000 GPa

  Fractional coordinates of asymmetric unit :

   No.  Atomic       x           y          z         Charge      Occupancy
        Label      (Frac)      (Frac)     (Frac)        (e)         (Frac)
      1 Sb    c    0.666667    0.333333    0.063305      0.0000    1.000000
      2 Sb    c    0.666667 *  0.333333 *  0.270028 *    0.0000    1.000000
      3 Sb    c    0.000000 *  0.000000 *  0.396639 *    0.0000    1.000000
      4 Sb    c    0.000000 *  0.000000 *  0.603361 *    0.0000    1.000000
      5 Sb    c    0.333333 *  0.666667 *  0.729972 *    0.0000    1.000000
      6 Sb    c    0.333333 *  0.666667 *  0.936695 *    0.0000    1.000000
      7 Te1   c    0.000000 *  0.000000 *  0.000000 *    0.0000    1.000000
      8 Te2   c    0.333333 *  0.666667 *  0.117591 *    0.0000    1.000000
      9 Te2   c    0.000000 *  0.000000 *  0.215743 *    0.0000    1.000000
     10 Te1   c    0.333333 *  0.666667 *  0.333333 *    0.0000    1.000000
     11 Te2   c    0.666667 *  0.333333 *  0.450924 *    0.0000    1.000000
     12 Te2   c    0.333333 *  0.666667 *  0.549076 *    0.0000    1.000000
     13 Te1   c    0.666667 *  0.333333 *  0.666667 *    0.0000    1.000000
     14 Te2   c    0.000000 *  0.000000 *  0.784257 *    0.0000    1.000000
     15 Te2   c    0.666667 *  0.333333 *  0.882409 *    0.0000    1.000000

*  General input information                                                   *

  Species output for all configurations :

  Species    Type    Atomic    Atomic    Charge       Radii (Angs)     Library
                     Number     Mass       (e)     Cova   Ionic  VDW   Symbol
    Sb       Core       51     121.75     0.0000   1.460  0.000  2.170
    Te1      Core       52     127.60     0.0000   1.470  0.000  2.200
    Te2      Core       52     127.60     0.0000   1.470  0.000  2.200

  Lattice summation method               =    Ewald
  Accuracy factor for lattice sums       =    8.000

  Time limit = Infinity

  Maximum range for interatomic potentials =         8.000000 Angstroms

  Taper potentials to zero over   8.0000 Angstroms using Voter m =  20.0000

  General interatomic potentials :

Atom  Types   Potential         A         B         C         D     Cutoffs(Ang)
  1     2                                                            Min    Max
Sb   c Te2  c Morse         0.805E-01  3.12     3.00     0.00       0.000 12.000
Sb   c Te1  c Morse         0.109      2.06     3.20     0.00       0.000 12.000
Sb   c Sb   c Morse         0.791E-01  1.51     4.67     0.00       0.000 12.000
Te2  c Te2  c Morse         0.127     0.908     3.95     0.00       0.000 12.000

  Energy shifts for configurations :

      Configuration           Energy (eV)        Scale Factor
             1               -14.6000                 1.000
             2               -14.6000                 1.000
             3               -14.6000                 1.000
             4               -14.6000                 1.000
             5               -14.6000                 1.000
             6               -14.6000                 1.000
             7               -14.6000                 1.000
             8               -14.6000                 1.000
             9               -14.6000                 1.000
            10               -14.6000                 1.000
            11               -14.6000                 1.000
            12               -14.6000                 1.000
            13               -14.6000                 1.000
            14               -14.6000                 1.000
            15               -14.6000                 1.000
            16               -14.6000                 1.000
            17               -14.6000                 1.000
            18               -14.6000                 1.000
            19               -14.6000                 1.000
            20               -14.6000                 1.000
            21               -14.6000                 1.000
            22               -14.6000                 1.000
            23               -14.6000                 1.000
            24               -14.6000                 1.000
            25               -14.6000                 1.000
            26               -14.6000                 1.000
            27               -14.6000                 1.000
            28               -14.6000                 1.000
            29               -14.6000                 1.000
            30               -14.6000                 1.000
            31               -14.6000                 1.000
            32               -14.6000                 1.000
            33               -14.6000                 1.000
            34               -14.6000                 1.000
            35               -14.6000                 1.000
            36               -14.6000                 1.000
            37               -14.6000                 1.000
            38               -14.6000                 1.000
            39               -14.6000                 1.000
            40               -14.6000                 1.000
            41               -14.6000                 1.000
            42               -14.6000                 1.000
            43               -14.6000                 1.000
            44               -14.6000                 1.000
            45               -14.6000                 1.000
            46               -14.6000                 1.000
            47               -14.6000                 1.000
            48               -14.6000                 1.000
            49               -14.6000                 1.000
            50               -14.6000                 1.000
            51               -14.6000                 1.000
            52               -14.6000                 1.000
            53               -14.6000                 1.000
            54               -14.6000                 1.000
            55               -14.6000                 1.000
            56               -14.6000                 1.000
            57               -14.6000                 1.000
            58               -14.6000                 1.000
            59               -14.6000                 1.000
            60               -14.6000                 1.000
[...]
           205               -14.6000                 1.000
           206               -14.6000                 1.000
           207               -14.6000                 1.000
           208               -14.6000                 1.000
           209               -14.6000                 1.000
           210               -14.6000                 1.000
           211               -14.6000                 1.000
           212               -14.6000                 1.000
           213               -14.6000                 1.000
           214               -14.6000                 1.000
           215               -14.6000                 1.000
           216               -14.6000                 1.000
           217               -14.6000                 1.000
           218               -14.6000                 1.000
           219               -14.6000                 1.000

  Number of variables   =   13
  Number of observables =  291

[...]
             6               -14.7933                 1.000
             7               -14.7933                 1.000
             8               -14.7933                 1.000
             9               -14.7933                 1.000
            10               -14.7933                 1.000
            11               -14.7933                 1.000
            12               -14.7933                 1.000
            13               -14.7933                 1.000
            14               -14.7933                 1.000
            15               -14.7933                 1.000
            16               -14.7933                 1.000
            17               -14.7933                 1.000
            18               -14.7933                 1.000
            19               -14.7933                 1.000
            20               -14.7933                 1.000
            21               -14.7933                 1.000
            22               -14.7933                 1.000
            23               -14.7933                 1.000
            24               -14.7933                 1.000
            25               -14.7933                 1.000
            26               -14.7933                 1.000
            27               -14.7933                 1.000
            28               -14.7933                 1.000
            29               -14.7933                 1.000
            30               -14.7933                 1.000
            31               -14.7933                 1.000
            32               -14.7933                 1.000
            33               -14.7933                 1.000
            34               -14.7933                 1.000
            35               -14.7933                 1.000
            36               -14.7933                 1.000
            37               -14.7933                 1.000
            38               -14.7933                 1.000
            39               -14.7933                 1.000
            40               -14.7933                 1.000
            41               -14.7933                 1.000
            42               -14.7933                 1.000
            43               -14.7933                 1.000
            44               -14.7933                 1.000
            45               -14.7933                 1.000
            46               -14.7933                 1.000
            47               -14.7933                 1.000
            48               -14.7933                 1.000
            49               -14.7933                 1.000
            50               -14.7933                 1.000
            51               -14.7933                 1.000
            52               -14.7933                 1.000
            53               -14.7933                 1.000
            54               -14.7933                 1.000
            55               -14.7933                 1.000
            56               -14.7933                 1.000
            57               -14.7933                 1.000
            58               -14.7933                 1.000
            59               -14.7933                 1.000
            60               -14.7933                 1.000
[...]
           205               -14.7933                 1.000
           206               -14.7933                 1.000
           207               -14.7933                 1.000
           208               -14.7933                 1.000
           209               -14.7933                 1.000
           210               -14.7933                 1.000
           211               -14.7933                 1.000
           212               -14.7933                 1.000
           213               -14.7933                 1.000
           214               -14.7933                 1.000
           215               -14.7933                 1.000
           216               -14.7933                 1.000
           217               -14.7933                 1.000
           218               -14.7933                 1.000
           219               -14.7933                 1.000

  Total time to end of fitting =    1637.5943 seconds

*  Output for configuration   1                                                *

!! WARNING : No variables to optimise - single point performed

  Components of energy :

  Interatomic potentials     =          -1.02356759 eV
  Monopole - monopole (real) =           0.00000000 eV
  Monopole - monopole (recip)=           0.00000000 eV
  Monopole - monopole (total)=           0.00000000 eV
  Energy shift               =         -14.79328373 eV
  Total lattice energy       =         -15.81685132 eV
  Total lattice energy       =           -1526.0844 kJ/(mole unit cells)

  Elastic Constant Matrix: (Units=GPa)

  Indices      1         2         3         4         5         6
       1    -20.1863  -22.5132    4.0060    0.0000   -3.8281   -0.0000
       2    -22.5132  -20.1863    4.0060   -0.0000    3.8281    0.0000
       3      4.0060    4.0060  -22.9068   -0.0000    0.0000   -0.0000
       4      0.0000   -0.0000   -0.0000   -9.2577   -0.0000    3.8281
       5     -3.8281    3.8281    0.0000   -0.0000   -9.2577    0.0000
       6     -0.0000    0.0000   -0.0000    3.8281    0.0000    1.1635

  Elastic Compliance Matrix: (Units=1/GPa)

[...]

 Mechanical properties :

  Convention :                    Reuss         Voigt         Hill
  Bulk  Modulus (GPa)     =      -9.04956     -10.25356      -9.65156
  Shear Modulus (GPa)     =       8.74625      -6.72224       1.01200
  Velocity S-wave (km/s)  =       3.78295      -3.31647       1.28680
  Velocity P-wave (km/s)  =       2.06736       5.60734       3.68567
  Compressibility (1/GPa) =   -0.11050264
  Stress axis :                     x             y             z
  Youngs Moduli (GPa)     =      12.67087      12.67087     -22.15511
  Poissons Ratio (x)      =                     1.30681      -0.09382
  Poissons Ratio (y)      =       1.30681                    -0.09382
  Poissons Ratio (z)      =       0.05366       0.05366

  Piezoelectric Strain Matrix: (Units=C/m**2)

  Indices      1         2         3         4         5         6
       x    -0.00000  -0.00000  -0.00000  -0.00000  -0.00000  -0.00000
       y    -0.00000  -0.00000  -0.00000  -0.00000  -0.00000  -0.00000
       z    -0.00000  -0.00000  -0.00000  -0.00000  -0.00000  -0.00000

  Piezoelectric Stress Matrix: (Units=10**-11 C/N)

[...]

  Static dielectric constant tensor :

              x         y         z
       x     1.00000   0.00000   0.00000
       y     0.00000   1.00000   0.00000
       z     0.00000   0.00000   1.00000

  Static refractive indices :

    1 =    1.00000      2 =    1.00000      3 =    1.00000

  Time to end of properties =    1637.5983 seconds

[...]

!! WARNING : No variables to optimise - single point performed

[...]

  Time to end of properties =    1638.2064 seconds

[...]

  Number of variables =     18

  Maximum number of calculations  =          1000
  Maximum Hessian update interval =            10
  Maximum step size               =   1.000000000
  Maximum parameter tolerance     =   0.000010000
  Maximum function  tolerance     =   0.000010000
  Maximum gradient  tolerance     =   0.001000000
  Maximum gradient  component     =   0.010000000

  Symmetry not applied to optimisation

  Cell parameters to be optimised using strains

  Newton-Raphson optimiser to be used

  BFGS hessian update to be used

[...]

  Start of bulk optimisation :

[...]

  **** Optimisation achieved ****

  Final energy =     -18.16062239 eV
  Final Gnorm  =       0.00065396

[...]

  Final fractional coordinates of atoms :

   No.  Atomic        x           y          z          Radius
        Label       (Frac)      (Frac)     (Frac)       (Angs)
     1  Sb    c     0.396797    0.396797    0.396797    0.000000
     2  Sb    c     0.596828    0.596828    0.596828    0.000000
     3  Te1   c     0.996812    0.996812    0.996812    0.000000
     4  Te2   c     0.779115    0.779115    0.779115    0.000000
     5  Te2   c     0.214509    0.214509    0.214509    0.000000

  Final Cartesian lattice vectors (Angstroms) :

[...]

  Final cell parameters and derivatives :

       a            9.794135 Angstrom     dE/de1(xx)    -0.002629 eV/strain
       b            9.794135 Angstrom     dE/de2(yy)    -0.002504 eV/strain
       c            9.794135 Angstrom     dE/de3(zz)    -0.002500 eV/strain
       alpha       26.251849 Degrees      dE/de4(yz)    -0.000003 eV/strain
       beta        26.251849 Degrees      dE/de5(xz)    -0.000016 eV/strain
       gamma       26.251849 Degrees      dE/de6(xy)    -0.000027 eV/strain

  Primitive cell volume =           161.965679 Angs**3

  Density of cell =      6.421188 g/cm**3

  Non-primitive cell volume =           161.965679 Angs**3

  Final internal derivatives :

   No.  Atomic          x             y             z           Radius
        Label          (eV)          (eV)          (eV)        (eV/Angs)
      1 Sb    c       0.000000      0.000000      0.000000      0.000000
      2 Sb    c       0.006283      0.006283      0.006283      0.000000
      3 Te1   c      -0.000000     -0.000000     -0.000000      0.000000
      4 Te2   c       0.000339      0.000339      0.000339      0.000000
      5 Te2   c      -0.000339     -0.000339     -0.000339      0.000000
  Maximum abs         0.006283      0.006283      0.006283      0.000000

[...]

  Time to end of optimisation =    1638.4144 seconds

*  Output for configuration 219                                                *

[...]

  Number of variables =     48

  Maximum number of calculations  =          1000
  Maximum Hessian update interval =            10
  Maximum step size               =   1.000000000
  Maximum parameter tolerance     =   0.000010000
  Maximum function  tolerance     =   0.000010000
  Maximum gradient  tolerance     =   0.001000000
  Maximum gradient  component     =   0.010000000

  Symmetry not applied to optimisation

  Cell parameters to be optimised using strains

  Newton-Raphson optimiser to be used

  BFGS hessian update to be used

  Dumpfile to be written after every cycle

  Start of bulk optimisation :

  ** Hessian calculated **

  **** Optimisation achieved ****

  Final energy =     -24.89530021 eV
  Final Gnorm  =       0.00007470

  Components of energy :

  Interatomic potentials     =         -10.10201648 eV
  Monopole - monopole (real) =           0.00000000 eV
  Monopole - monopole (recip)=           0.00000000 eV
  Monopole - monopole (total)=           0.00000000 eV
  Energy shift               =         -14.79328373 eV
  Total lattice energy       =         -24.89530021 eV
  Total lattice energy       =           -2402.0159 kJ/(mole unit cells)

  Final fractional coordinates of atoms :

   No.  Atomic        x           y          z          Radius
        Label       (Frac)      (Frac)     (Frac)       (Angs)
     1  Sb    c     0.666667    0.333333    0.063305    0.000000
     2  Sb    c     0.666667    0.333333    0.263320    0.000000
     3  Sb    c     1.000000    0.000000    0.396639    0.000000
     4  Sb    c     0.000000    1.000000    0.596653    0.000000
     5  Sb    c     0.333333    0.666667    0.729972    0.000000
     6  Sb    c     0.333333    0.666667    0.929987    0.000000
     7  Te1   c     0.000000    1.000000    0.996646    0.000000
     8  Te2   c     0.333333    0.666667    0.112282    0.000000
     9  Te2   c     1.000000    0.000000    0.214343    0.000000
    10  Te1   c     0.333333    0.666667    0.329979    0.000000
    11  Te2   c     0.666667    0.333333    0.445615    0.000000
    12  Te2   c     0.333333    0.666667    0.547677    0.000000
    13  Te1   c     0.666667    0.333333    0.663313    0.000000
    14  Te2   c     0.000000    1.000000    0.778949    0.000000
    15  Te2   c     0.666667    0.333333    0.881010    0.000000

  Final Cartesian lattice vectors (Angstroms) :

        4.448530    0.000000    0.000000
       -2.224265    3.852540   -0.000000
        0.000000   -0.000000   28.352618

  Final cell parameters and derivatives :

       a            4.448530 Angstrom     dE/de1(xx)     0.000742 eV/strain
       b            4.448530 Angstrom     dE/de2(yy)     0.000742 eV/strain
       c           28.352618 Angstrom     dE/de3(zz)    -0.000088 eV/strain
       alpha       90.000000 Degrees      dE/de4(yz)    -0.000000 eV/strain
       beta        90.000000 Degrees      dE/de5(xz)     0.000000 eV/strain
       gamma      120.000000 Degrees      dE/de6(xy)     0.000000 eV/strain

  Primitive cell volume =           485.911062 Angs**3

  Density of cell =      6.421003 g/cm**3

  Non-primitive cell volume =           485.911062 Angs**3

  Final internal derivatives :

   No.  Atomic          x             y             z           Radius
        Label          (eV)          (eV)          (eV)        (eV/Angs)
      1 Sb    c       0.000000      0.000000      0.000000      0.000000
      2 Sb    c       0.000000     -0.000000     -0.001453      0.000000
      3 Sb    c      -0.000000      0.000000      0.001453      0.000000
      4 Sb    c       0.000000     -0.000000     -0.001453      0.000000
      5 Sb    c      -0.000000      0.000000      0.001453      0.000000
      6 Sb    c       0.000000     -0.000000     -0.001453      0.000000
      7 Te1   c       0.000000      0.000000      0.000000      0.000000
      8 Te2   c       0.000000     -0.000000     -0.000446      0.000000
      9 Te2   c      -0.000000      0.000000      0.000446      0.000000
     10 Te1   c      -0.000000      0.000000      0.000000      0.000000
     11 Te2   c       0.000000     -0.000000     -0.000446      0.000000
     12 Te2   c      -0.000000      0.000000      0.000446      0.000000
     13 Te1   c      -0.000000      0.000000     -0.000000      0.000000
     14 Te2   c       0.000000     -0.000000     -0.000446      0.000000
     15 Te2   c      -0.000000      0.000000      0.000446      0.000000
  Maximum abs         0.000000      0.000000      0.001453      0.000000

  Elastic Constant Matrix: (Units=GPa)

[...]

  Elastic Compliance Matrix: (Units=1/GPa)

  Indices      1         2         3         4         5         6
       1    0.036841 -0.005462 -0.038592 -0.028375  0.000000 -0.000000
       2   -0.005462  0.036841 -0.038592  0.028375  0.000000 -0.000000
       3   -0.038592 -0.038592  0.154415 -0.000000  0.000000  0.000000
       4   -0.028375  0.028375 -0.000000  0.099579  0.000000 -0.000000
       5    0.000000  0.000000  0.000000  0.000000  0.099579 -0.056749
       6   -0.000000 -0.000000  0.000000 -0.000000 -0.056749  0.084606

 Mechanical properties :

  Convention :                    Reuss         Voigt         Hill
  Bulk  Modulus (GPa)     =      15.92275      29.43990      22.68132
  Shear Modulus (GPa)     =       7.16240      15.27734      11.21987
  Velocity S-wave (km/s)  =       3.33986       4.87778       4.18016
  Velocity P-wave (km/s)  =       6.29847       8.80756       7.65650
  Compressibility (1/GPa) =    0.06280324
  Stress axis :                     x             y             z
  Youngs Moduli (GPa)     =      27.14372      27.14372       6.47605
  Poissons Ratio (x)      =                     0.14826       0.24993
  Poissons Ratio (y)      =       0.14826                     0.24993
  Poissons Ratio (z)      =       1.04754       1.04754

  Piezoelectric Strain Matrix: (Units=C/m**2)

[...]

  Piezoelectric Stress Matrix: (Units=10**-11 C/N)

  Indices      1         2         3         4         5         6
       x     0.00000   0.00000   0.00000   0.00000   0.00000   0.00000
       y     0.00000   0.00000   0.00000   0.00000   0.00000   0.00000
       z     0.00000   0.00000   0.00000   0.00000   0.00000   0.00000

  Static dielectric constant tensor :

              x         y         z
       x     1.00000   0.00000   0.00000
       y     0.00000   1.00000   0.00000
       z     0.00000   0.00000   1.00000

  Static refractive indices :

    1 =    1.00000      2 =    1.00000      3 =    1.00000

  Time to end of optimisation =    1638.7064 seconds

  Timing analysis for GULP :

  Task / Subroutine                                          Time (Seconds)
  Calculation of real space energy and derivatives             1573.0303
  Sum of squares for fitting                                     44.5028
  Global summation overhead                                       0.9721

  Dump file written as sb2te3_16.res

  **** GULP has completed with 217 warnings - beware! ****

  Job Finished at 23:24.02 22nd July       2010