  Job Started  at 14:26.43 21st July       2010

  Number of CPUs =     1

  Total number of configurations input =   1

*  Input for Configuration =   1                                               *

  Formula = Sb6Te9

  Number of irreducible atoms/shells =      15

  Total number atoms/shells =      15

  Dimensionality = 3               :  Bulk

  Cartesian lattice vectors (Angstroms) :

        4.330000    0.000000    0.000000
       -2.165000    3.749890    0.000000
        0.000000    0.000000   31.432900

  Cell parameters (Angstroms/Degrees):

  a =       4.3300    alpha =  90.0000
  b =       4.3300    beta  =  90.0000
  c =      31.4329    gamma = 120.0000

  Initial cell volume =         510.376742 Angs**3

  Temperature of configuration =  0.000     K

  Pressure of configuration =         0.000 GPa

  Fractional coordinates of asymmetric unit :

   No.  Atomic       x           y          z         Charge      Occupancy
        Label      (Frac)      (Frac)     (Frac)        (e)         (Frac)
      1 Sb    c    0.666667    0.333333    0.063305      0.0000    1.000000
      2 Sb    c    0.666667 *  0.333333 *  0.270028 *    0.0000    1.000000
      3 Sb    c    0.000000 *  0.000000 *  0.396639 *    0.0000    1.000000
      4 Sb    c    0.000000 *  0.000000 *  0.603361 *    0.0000    1.000000
      5 Sb    c    0.333333 *  0.666667 *  0.729972 *    0.0000    1.000000
      6 Sb    c    0.333333 *  0.666667 *  0.936695 *    0.0000    1.000000
      7 Te1   c    0.000000 *  0.000000 *  0.000000 *    0.0000    1.000000
      8 Te2   c    0.333333 *  0.666667 *  0.117591 *    0.0000    1.000000
      9 Te2   c    0.000000 *  0.000000 *  0.215743 *    0.0000    1.000000
     10 Te1   c    0.333333 *  0.666667 *  0.333333 *    0.0000    1.000000
     11 Te2   c    0.666667 *  0.333333 *  0.450924 *    0.0000    1.000000
     12 Te2   c    0.333333 *  0.666667 *  0.549076 *    0.0000    1.000000
     13 Te1   c    0.666667 *  0.333333 *  0.666667 *    0.0000    1.000000
     14 Te2   c    0.000000 *  0.000000 *  0.784257 *    0.0000    1.000000
     15 Te2   c    0.666667 *  0.333333 *  0.882409 *    0.0000    1.000000

  Brillouin zone sampling points :

  Point number          x          y          z            Weight
        1           0.000000   0.000000   0.000000         0.0333
        2           0.000000   0.000000   0.017241         0.0333
        3           0.000000   0.000000   0.034483         0.0333
        4           0.000000   0.000000   0.051724         0.0333
        5           0.000000   0.000000   0.068966         0.0333
        6           0.000000   0.000000   0.086207         0.0333
        7           0.000000   0.000000   0.103448         0.0333
        8           0.000000   0.000000   0.120690         0.0333
        9           0.000000   0.000000   0.137931         0.0333
       10           0.000000   0.000000   0.155172         0.0333
       11           0.000000   0.000000   0.172414         0.0333
       12           0.000000   0.000000   0.189655         0.0333
       13           0.000000   0.000000   0.206897         0.0333
       14           0.000000   0.000000   0.224138         0.0333
       15           0.000000   0.000000   0.241379         0.0333
       16           0.000000   0.000000   0.258621         0.0333
       17           0.000000   0.000000   0.275862         0.0333
       18           0.000000   0.000000   0.293103         0.0333
       19           0.000000   0.000000   0.310345         0.0333
       20           0.000000   0.000000   0.327586         0.0333
       21           0.000000   0.000000   0.344828         0.0333
       22           0.000000   0.000000   0.362069         0.0333
       23           0.000000   0.000000   0.379310         0.0333
       24           0.000000   0.000000   0.396552         0.0333
       25           0.000000   0.000000   0.413793         0.0333
       26           0.000000   0.000000   0.431034         0.0333
       27           0.000000   0.000000   0.448276         0.0333
       28           0.000000   0.000000   0.465517         0.0333
       29           0.000000   0.000000   0.482759         0.0333
       30           0.000000   0.000000   0.500000         0.0333

*  General input information                                                   *

  Species output for all configurations :

  Species    Type    Atomic    Atomic    Charge       Radii (Angs)     Library
                     Number     Mass       (e)     Cova   Ionic  VDW   Symbol
    Sb       Core       51     121.75     0.0000   1.460  0.000  2.170
    Te1      Core       52     127.60     0.0000   1.470  0.000  2.200
    Te2      Core       52     127.60     0.0000   1.470  0.000  2.200

  Lattice summation method               =    Ewald
  Accuracy factor for lattice sums       =    8.000

  Time limit = Infinity

  Maximum range for interatomic potentials =         8.000000 Angstroms

  Taper potentials to zero over   8.0000 Angstroms using Voter m =  20.0000

  General interatomic potentials :

Atom  Types   Potential         A         B         C         D     Cutoffs(Ang)
  1     2                                                            Min    Max
Sb   c Te2  c Morse         0.761E-01  3.29     3.06     0.00       0.000 12.000
Sb   c Te1  c Morse         0.174      1.70     3.27     0.00       0.000 12.000
Sb   c Sb   c Morse         0.109      1.21     4.71     0.00       0.000 12.000
Te1  c Te1  c Morse         0.109      1.03     3.95     0.00       0.000 12.000
Te1  c Te2  c Morse         0.148     0.736     4.57     0.00       0.000 12.000
Te2  c Te2  c Morse         0.109      1.45     4.06     0.00       0.000 12.000

  Energy shifts for configurations :

      Configuration           Energy (eV)        Scale Factor
             1               -14.6000                 1.000

*  Output for configuration   1                                                *

  Components of energy :

  Interatomic potentials     =         -13.92299278 eV
  Monopole - monopole (real) =           0.00000000 eV
  Monopole - monopole (recip)=           0.00000000 eV
  Monopole - monopole (total)=           0.00000000 eV
  Energy shift               =         -14.60000000 eV
  Total lattice energy       =         -28.52299278 eV
  Total lattice energy       =           -2752.0328 kJ/(mole unit cells)

  Number of variables =     48

  Maximum number of calculations  =          1000
  Maximum Hessian update interval =            10
  Maximum step size               =   1.000000000
  Maximum parameter tolerance     =   0.000010000
  Maximum function  tolerance     =   0.000010000
  Maximum gradient  tolerance     =   0.001000000
  Maximum gradient  component     =   0.010000000

  Symmetry not applied to optimisation

  Cell parameters to be optimised using strains

  Newton-Raphson optimiser to be used

  BFGS hessian update to be used

  Start of bulk optimisation :

  ** Hessian calculated **

  **** Optimisation achieved ****

  Final energy =     -28.61415178 eV
  Final Gnorm  =       0.00007753

  Components of energy :

  Interatomic potentials     =         -14.01415178 eV
  Monopole - monopole (real) =           0.00000000 eV
  Monopole - monopole (recip)=           0.00000000 eV
  Monopole - monopole (total)=           0.00000000 eV
  Energy shift               =         -14.60000000 eV
  Total lattice energy       =         -28.61415178 eV
  Total lattice energy       =           -2760.8282 kJ/(mole unit cells)

  Final fractional coordinates of atoms :

   No.  Atomic        x           y          z          Radius
        Label       (Frac)      (Frac)     (Frac)       (Angs)
     1  Sb    c     0.666667    0.333333    0.063305    0.000000
     2  Sb    c     0.666667    0.333333    0.267020    0.000000
     3  Sb    c     1.000000    0.000000    0.396639    0.000000
     4  Sb    c     0.000000    1.000000    0.600353    0.000000
     5  Sb    c     0.333333    0.666667    0.729972    0.000000
     6  Sb    c     0.333333    0.666667    0.933686    0.000000
     7  Te1   c     0.000000    1.000000    0.998496    0.000000
     8  Te2   c     0.333333    0.666667    0.116291    0.000000
     9  Te2   c     0.000000    1.000000    0.214034    0.000000
    10  Te1   c     0.333333    0.666667    0.331829    0.000000
    11  Te2   c     0.666667    0.333333    0.449624    0.000000
    12  Te2   c     0.333333    0.666667    0.547368    0.000000
    13  Te1   c     0.666667    0.333333    0.665162    0.000000
    14  Te2   c     1.000000    0.000000    0.782957    0.000000
    15  Te2   c     0.666667    0.333333    0.880701    0.000000

  Final Cartesian lattice vectors (Angstroms) :

[...]

  Final cell parameters and derivatives :

       a            4.443094 Angstrom     dE/de1(xx)     0.000106 eV/strain
       b            4.443094 Angstrom     dE/de2(yy)     0.000106 eV/strain
       c           29.871527 Angstrom     dE/de3(zz)    -0.000993 eV/strain
       alpha       90.000000 Degrees      dE/de4(yz)     0.000000 eV/strain
       beta        90.000000 Degrees      dE/de5(xz)    -0.000000 eV/strain
       gamma      120.000000 Degrees      dE/de6(xy)    -0.000000 eV/strain

  Primitive cell volume =           510.692097 Angs**3

  Density of cell =      6.109428 g/cm**3

  Non-primitive cell volume =           510.692097 Angs**3

  Final internal derivatives :

   No.  Atomic          x             y             z           Radius
        Label          (eV)          (eV)          (eV)        (eV/Angs)
      1 Sb    c       0.000000      0.000000      0.000000      0.000000
      2 Sb    c      -0.000000      0.000000      0.000927      0.000000
      3 Sb    c       0.000000     -0.000000     -0.000927      0.000000
      4 Sb    c      -0.000000      0.000000      0.000927      0.000000
      5 Sb    c       0.000000     -0.000000     -0.000927      0.000000
      6 Sb    c      -0.000000      0.000000      0.000927      0.000000
      7 Te1   c       0.000000     -0.000000     -0.000000      0.000000
      8 Te2   c      -0.000000      0.000000     -0.001194      0.000000
      9 Te2   c       0.000000     -0.000000      0.001194      0.000000
     10 Te1   c       0.000000      0.000000     -0.000000      0.000000
     11 Te2   c      -0.000000      0.000000     -0.001194      0.000000
     12 Te2   c       0.000000     -0.000000      0.001194      0.000000
     13 Te1   c      -0.000000     -0.000000      0.000000      0.000000
     14 Te2   c      -0.000000      0.000000     -0.001194      0.000000
     15 Te2   c       0.000000     -0.000000      0.001194      0.000000
  Maximum abs         0.000000      0.000000      0.001194      0.000000

  Elastic Constant Matrix: (Units=GPa)

  Indices      1         2         3         4         5         6
       1     56.6774   21.4110   25.0288   13.8712   -0.0000   -0.0000
       2     21.4110   56.6774   25.0288  -13.8712    0.0000   -0.0000
       3     25.0288   25.0288   30.0252    0.0000   -0.0000   -0.0000
       4     13.8712  -13.8712    0.0000   20.4710   -0.0000    0.0000
       5     -0.0000    0.0000   -0.0000   -0.0000   20.4710   13.8712
       6     -0.0000   -0.0000   -0.0000    0.0000   13.8712   17.6332

  Elastic Compliance Matrix: (Units=1/GPa)

  Indices      1         2         3         4         5         6
       1    0.044113 -0.016611 -0.022926 -0.041147  0.000000  0.000000
       2   -0.016611  0.044113 -0.022926  0.041147 -0.000000 -0.000000
       3   -0.022926 -0.022926  0.071526 -0.000000  0.000000 -0.000000
       4   -0.041147  0.041147 -0.000000  0.104612  0.000000 -0.000000
       5    0.000000 -0.000000  0.000000  0.000000  0.104612 -0.082293
       6    0.000000 -0.000000 -0.000000 -0.000000 -0.082293  0.121447

 Mechanical properties :

  Convention :                    Reuss         Voigt         Hill
  Bulk  Modulus (GPa)     =      28.71213      31.81300      30.26257
  Shear Modulus (GPa)     =       7.97504      16.50912      12.24208
  Velocity S-wave (km/s)  =       3.61298       5.19830       4.47638
  Velocity P-wave (km/s)  =       8.02504       9.38626       8.73221
  Compressibility (1/GPa) =    0.03482849
  Stress axis :                     x             y             z
  Youngs Moduli (GPa)     =      22.66909      22.66909      13.98086
  Poissons Ratio (x)      =                     0.37655       0.32052
  Poissons Ratio (y)      =       0.37655                     0.32052
  Poissons Ratio (z)      =       0.51970       0.51970

  Piezoelectric Strain Matrix: (Units=C/m**2)

  Indices      1         2         3         4         5         6
       x    -0.00000  -0.00000  -0.00000  -0.00000  -0.00000  -0.00000
       y    -0.00000  -0.00000  -0.00000  -0.00000  -0.00000  -0.00000
       z    -0.00000  -0.00000  -0.00000  -0.00000  -0.00000  -0.00000

  Piezoelectric Stress Matrix: (Units=10**-11 C/N)

  Indices      1         2         3         4         5         6
       x     0.00000   0.00000   0.00000   0.00000   0.00000   0.00000
       y     0.00000   0.00000   0.00000   0.00000   0.00000   0.00000
       z     0.00000   0.00000   0.00000   0.00000   0.00000   0.00000

  Static dielectric constant tensor :

              x         y         z
       x     1.00000   0.00000   0.00000
       y     0.00000   1.00000   0.00000
       z     0.00000   0.00000   1.00000

  Static refractive indices :

    1 =    1.00000      2 =    1.00000      3 =    1.00000

  Phonon Calculation :

  K direction for n-a correction at gamma =  1.00000  1.00000  1.00000

  Number of k points for this configuration =   30

  K point   1 =   0.000000  0.000000  0.000000  Weight =    0.033

  Frequencies (cm-1) [NB: Negative implies an imaginary mode]:

[...]

  K point  30 =   0.000000  0.000000  0.500000  Weight =    0.033

  Frequencies (cm-1) [NB: Negative implies an imaginary mode]:

   10.15   10.15   10.15   10.15   12.33   12.33   25.52   25.52   30.96
   36.89   36.89   48.43   48.43   48.43   48.43   51.08   70.38   70.38
   74.82   74.82   74.82   74.82   78.55   78.55   93.08   93.08  102.49
  113.98  113.98  116.98  118.35  118.35  119.85  119.85  119.85  119.85
  121.04  122.62  122.62  122.62  122.62  123.52  123.52  125.08  125.08

  Phonon properties (per mole of unit cells): Temperature =      0.000 K
  Zero point energy            =        0.217946 eV

  Phonon density of states :

 Frequency (cm-1) Density of States
    0.00000 |                                                              0.000
    0.00000 |                                                              0.000
    0.00000 |                                                              0.000
    0.00000 |                                                              0.000
    0.00000 |                                                              0.000
    0.00000 |                                                              0.000
    0.00001 |                                                              0.000
    0.00001 |                                                              0.000
    0.00001 |                                                              0.000
    0.00001 |                                                              0.000
    0.00001 |                                                              0.000
    0.00001 |                                                              0.000
    0.00001 |                                                              0.000
    0.00001 |                                                              0.000
    0.00001 |                                                              0.000
    0.00001 |                                                              0.000
    0.00002 |                                                              0.000
    0.00002 |                                                              0.000
    0.00002 |                                                              0.000
    0.00002 |                                                              0.000
    0.00002 |                                                              0.000
    0.00002 |                                                              0.000
    0.00002 |                                                              0.000
    0.00002 |                                                              0.000
    0.00002 |                                                              0.000
    0.00002 |                                                              0.000
    0.00003 |                                                              0.000
    0.00003 |                                                              0.000
    0.00003 |                                                              0.000
    0.00003 |                                                              0.000
    0.00003 |                                                              0.000
    0.00003 |                                                              0.000
    0.00003 |                                                              0.000
    0.00003 |                                                              0.000
    0.00003 |                                                              0.000
    0.00003 |                                                              0.000
    0.00004 |                                                              0.000
    0.00004 |                                                              0.000
    0.00004 |                                                              0.000
    0.00004 |                                                              0.000
    0.00004 |                                                              0.000
    0.00004 |                                                              0.000
    0.00004 |                                                              0.000
    0.00004 |                                                              0.000
    0.00004 |                                                              0.000
    0.00004 |                                                              0.000
    0.00005 |                                                              0.000
    0.00005 |                                                              0.000
    0.00005 |                                                              0.000
    0.00005 |                                                              0.000
    0.00005 |                                                              0.000
    0.00005 |                                                              0.000
    0.00005 |                                                              0.000
    0.00005 |                                                              0.000
    0.00005 |                                                              0.000
    0.00005 |                                                              0.000
    0.00006 |                                                              0.000
    0.00006 |                                                              0.000
    0.00006 |                                                              0.000
    0.00006 |                                                              0.000
    0.00006 |                                                              0.000
    0.00006 |                                                              0.000
    0.00006 |                                                              0.000
    0.00006 |                                                              0.000

  Phonon density of states written as Sb2Te3_K_Z.dens

  Phonon dispersion curves :

  Section number =   1
  Frequency (cm-1) Phonon dispersion
   130.39   |
   124.95   | * * * * * * * * * * * * * * * * * * * * * * * * * * * * * *
   119.52   | * * * * * * * * * * * * * * * * * * * * * * * * * * * * * *
   114.09   | * * * * * * * * * * * * * * * * * * * * * * * * * * * * * *
   108.65   | * * * * * * * * * * * * * * * * * * * * * * * * * * * * * *
   103.22   |
    97.79   | * * * * * * * * * * * * * * * * * * * * * * * * * * * * * *
    92.36   |                         * * * * * * * * * * * * * * * * * *
    86.92   |                       * * * * * * * * * * * * * * * *
    81.49   | * * * * * * * * * * *
    76.06   | * * * * * * * * * * * * * * * * * * * * * * * * * * * * * *
    70.63   | * * * * * * * * * * * * * * * * * * * * * * * * * * * * * *
    65.19   |                                   * * * * * * * * * * * * *
    59.76   |         * * * * * * * * * * * * *
    54.33   | * * * * * * * * * * *
    48.89   | * * * * * * * * * * * * * * * * * * * * * * * * * * * * * *
    43.46   |               * * * * * * * * * * * * * * * * * * * * * * *
    38.03   | * * * * * * * * * * * * * * * * * *
    32.60   |                                     * * * * * * * * * * * *
    27.16   |                   * * * * * * * * * * * * * * * * * * * * *
    21.73   | * * * * * * * * * * * * * * * * * * * * * * * * * * * * * *
    16.30   | * * * * * * * * * * * * * * * * * * * *
    10.87   |                       * * * * * * * * * * * * * * * * * * *
     5.43   |                           * * * * * * * * * * * * * * * * *
     0.00   | * * * * * * * * * * * * * * * *

  Phonon dispersion written as Sb2Te3_K_Z.disp

  Time to end of optimisation =       0.2600 seconds

  Timing analysis for GULP :

  Task / Subroutine                                          Time (Seconds)
  Calculation of real space energy and derivatives                0.1560

  Job Finished at 14:26.43 21st July       2010