  Job Started  at 10:53.45 30th July       2010

  Number of CPUs =     1

  Total number of configurations input = 219

*  Input for Configuration =   1                                               *

  Formula = Sb2Te3

  Number of irreducible atoms/shells =       5

  Total number atoms/shells =       5

  Dimensionality = 3               :  Bulk

  Cartesian lattice vectors (Angstroms) :

       -2.504286    0.000000   10.443767
        1.252143   -2.168775   10.443767
        1.252143    2.168775   10.443767

  Cell parameters (Angstroms/Degrees):

  a =      10.7398    alpha =  23.3006
  b =      10.7398    beta  =  23.3006
  c =      10.7398    gamma =  23.3006

  Initial cell volume =         170.167643 Angs**3

  Temperature of configuration =  0.000     K

  Pressure of configuration =         0.000 GPa

  Fractional coordinates of asymmetric unit :

   No.  Atomic       x           y          z         Charge      Occupancy
        Label      (Frac)      (Frac)     (Frac)        (e)         (Frac)
      1 Sb    c    0.369021    0.369021    0.369021      0.0000    1.000000
      2 Sb    c    0.603203    0.603203    0.603203      0.0000    1.000000
      3 Te1   c    0.000000    0.000000    0.000000      0.0000    1.000000
      4 Te2   c    0.784571    0.784571    0.784571      0.0000    1.000000
      5 Te2   c    0.215429    0.215429    0.215429      0.0000    1.000000

[...]

   No.  Atomic       x           y          z         Charge      Occupancy
        Label      (Frac)      (Frac)     (Frac)        (e)         (Frac)
      1 Sb    c    0.666667    0.333333    0.063305      0.0000    1.000000
      2 Sb    c    0.666667    0.333333    0.270028      0.0000    1.000000
      3 Sb    c    0.000000    0.000000    0.396639      0.0000    1.000000
      4 Sb    c    0.000000    0.000000    0.603361      0.0000    1.000000
      5 Sb    c    0.333333    0.666667    0.729972      0.0000    1.000000
      6 Sb    c    0.333333    0.666667    0.936695      0.0000    1.000000
      7 Te1   c    0.000000    0.000000    0.000000      0.0000    1.000000
      8 Te2   c    0.333333    0.666667    0.117591      0.0000    1.000000
      9 Te2   c    0.000000    0.000000    0.215743      0.0000    1.000000
     10 Te1   c    0.333333    0.666667    0.333333      0.0000    1.000000
     11 Te2   c    0.666667    0.333333    0.450924      0.0000    1.000000
     12 Te2   c    0.333333    0.666667    0.549076      0.0000    1.000000
     13 Te1   c    0.666667    0.333333    0.666667      0.0000    1.000000
     14 Te2   c    0.000000    0.000000    0.784257      0.0000    1.000000
     15 Te2   c    0.666667    0.333333    0.882409      0.0000    1.000000

[...]

   No.  Atomic       x           y          z         Charge      Occupancy
        Label      (Frac)      (Frac)     (Frac)        (e)         (Frac)
      1 Sb    c    0.396797    0.396797    0.396797      0.0000    1.000000
      2 Sb    c    0.603203 *  0.603203 *  0.603203 *    0.0000    1.000000
      3 Te1   c    0.000000 *  0.000000 *  0.000000 *    0.0000    1.000000
      4 Te2   c    0.784571 *  0.784571 *  0.784571 *    0.0000    1.000000
      5 Te2   c    0.215429 *  0.215429 *  0.215429 *    0.0000    1.000000

*  Input for Configuration = 219                                               *

  Formula = Sb6Te9

  Number of irreducible atoms/shells =      15

  Total number atoms/shells =      15

  Dimensionality = 3               :  Bulk

  Cartesian lattice vectors (Angstroms) :

        4.330000    0.000000    0.000000
       -2.165000    3.749890    0.000000
        0.000000    0.000000   31.432900

  Cell parameters (Angstroms/Degrees):

  a =       4.3300    alpha =  90.0000
  b =       4.3300    beta  =  90.0000
  c =      31.4329    gamma = 120.0000

  Initial cell volume =         510.376742 Angs**3

  Temperature of configuration =  0.000     K

  Pressure of configuration =         0.000 GPa

  Fractional coordinates of asymmetric unit :

   No.  Atomic       x           y          z         Charge      Occupancy
        Label      (Frac)      (Frac)     (Frac)        (e)         (Frac)
      1 Sb    c    0.666667    0.333333    0.063305      0.0000    1.000000
      2 Sb    c    0.666667 *  0.333333 *  0.270028 *    0.0000    1.000000
      3 Sb    c    0.000000 *  0.000000 *  0.396639 *    0.0000    1.000000
      4 Sb    c    0.000000 *  0.000000 *  0.603361 *    0.0000    1.000000
      5 Sb    c    0.333333 *  0.666667 *  0.729972 *    0.0000    1.000000
      6 Sb    c    0.333333 *  0.666667 *  0.936695 *    0.0000    1.000000
      7 Te1   c    0.000000 *  0.000000 *  0.000000 *    0.0000    1.000000
      8 Te2   c    0.333333 *  0.666667 *  0.117591 *    0.0000    1.000000
      9 Te2   c    0.000000 *  0.000000 *  0.215743 *    0.0000    1.000000
     10 Te1   c    0.333333 *  0.666667 *  0.333333 *    0.0000    1.000000
     11 Te2   c    0.666667 *  0.333333 *  0.450924 *    0.0000    1.000000
     12 Te2   c    0.333333 *  0.666667 *  0.549076 *    0.0000    1.000000
     13 Te1   c    0.666667 *  0.333333 *  0.666667 *    0.0000    1.000000
     14 Te2   c    0.000000 *  0.000000 *  0.784257 *    0.0000    1.000000
     15 Te2   c    0.666667 *  0.333333 *  0.882409 *    0.0000    1.000000

*  General input information                                                   *

  Species output for all configurations :

  Species    Type    Atomic    Atomic    Charge       Radii (Angs)     Library
                     Number     Mass       (e)     Cova   Ionic  VDW   Symbol
    Sb       Core       51     121.75     0.0000   1.460  0.000  2.170
    Te1      Core       52     127.60     0.0000   1.470  0.000  2.200
    Te2      Core       52     127.60     0.0000   1.470  0.000  2.200

  Lattice summation method               =    Ewald
  Accuracy factor for lattice sums       =    8.000

  Time limit = Infinity

  Maximum range for interatomic potentials =         8.000000 Angstroms

  Taper potentials to zero over   8.0000 Angstroms using Voter m =  20.0000

  General interatomic potentials :

Atom  Types   Potential         A         B         C         D     Cutoffs(Ang)
  1     2                                                            Min    Max
Sb   c Te2  c Morse         0.399E-01  2.93     3.00     0.00       0.000 12.000
Sb   c Te1  c Morse         0.942E-01  1.98     3.25     0.00       0.000 12.000
Sb   c Sb   c Morse         0.631E-01  2.00     4.49     0.00       0.000 12.000
Te1  c Te1  c Morse         0.492E-01  1.47     4.44     0.00       0.000 12.000
Te1  c Te2  c Morse         0.965E-01 0.487     4.72     0.00       0.000 12.000
Te2  c Te2  c Morse         0.926E-01  1.55     3.95     0.00       0.000 12.000

  Energy shifts for configurations :

      Configuration           Energy (eV)        Scale Factor
             1               -14.6000                 1.000
             2               -14.6000                 1.000
             3               -14.6000                 1.000
             4               -14.6000                 1.000
             5               -14.6000                 1.000
             6               -14.6000                 1.000
             7               -14.6000                 1.000
             8               -14.6000                 1.000
             9               -14.6000                 1.000
            10               -14.6000                 1.000
            11               -14.6000                 1.000
            12               -14.6000                 1.000
            13               -14.6000                 1.000
            14               -14.6000                 1.000
            15               -14.6000                 1.000
            16               -14.6000                 1.000
            17               -14.6000                 1.000
            18               -14.6000                 1.000
            19               -14.6000                 1.000
            20               -14.6000                 1.000
            21               -14.6000                 1.000
            22               -14.6000                 1.000
            23               -14.6000                 1.000
            24               -14.6000                 1.000
            25               -14.6000                 1.000
            26               -14.6000                 1.000
            27               -14.6000                 1.000
            28               -14.6000                 1.000
            29               -14.6000                 1.000
            30               -14.6000                 1.000
            31               -14.6000                 1.000
            32               -14.6000                 1.000
            33               -14.6000                 1.000
            34               -14.6000                 1.000
            35               -14.6000                 1.000
            36               -14.6000                 1.000
            37               -14.6000                 1.000
            38               -14.6000                 1.000
            39               -14.6000                 1.000
            40               -14.6000                 1.000
            41               -14.6000                 1.000
            42               -14.6000                 1.000
            43               -14.6000                 1.000
            44               -14.6000                 1.000
            45               -14.6000                 1.000
            46               -14.6000                 1.000
            47               -14.6000                 1.000
            48               -14.6000                 1.000
            49               -14.6000                 1.000
            50               -14.6000                 1.000
            51               -14.6000                 1.000
            52               -14.6000                 1.000
            53               -14.6000                 1.000
            54               -14.6000                 1.000
            55               -14.6000                 1.000
            56               -14.6000                 1.000
            57               -14.6000                 1.000
            58               -14.6000                 1.000
            59               -14.6000                 1.000
            60               -14.6000                 1.000
[...]
           205               -14.6000                 1.000
           206               -14.6000                 1.000
           207               -14.6000                 1.000
           208               -14.6000                 1.000
           209               -14.6000                 1.000
           210               -14.6000                 1.000
           211               -14.6000                 1.000
           212               -14.6000                 1.000
           213               -14.6000                 1.000
           214               -14.6000                 1.000
           215               -14.6000                 1.000
           216               -14.6000                 1.000
[...]
        213        Energy           -18.12995    -17.32754    -17.65871
        214        Energy           -17.71105    -17.21718    -17.55526
        215        Energy           -17.14606    -17.02889    -17.38136
        216        Energy           -16.60068    -16.73996    -17.12246
        217        Elastic Const     64.99800     63.71313     62.69357
        218        Elastic Const     64.99800     63.71313     62.69357
        219        Elastic Const     15.90000     18.67549     21.27371
        220        Elastic Const     15.38046     21.70827     22.06174
        221        Elastic Const     11.74897      9.46161     11.39882
        222        Elastic Const      7.35000      6.40134      5.99128
        223        Elastic Const     11.80000      9.90464      9.51432
        224        Elastic Const     11.80000      9.90464      9.51432
        225        Elastic Const     24.81000     21.00243     20.31591
        226        Structure         10.73980      9.83156     10.75609
        227        Structure         10.73980      9.83156     10.75609
        228        Structure         10.73980      9.83156     10.75609
        229        Structure         23.30000     25.83833     23.36786
        230        Structure         23.30000     25.83833     23.36786
        231        Structure         23.30000     25.83833     23.36786
        232        Structure          0.60320      0.59805      0.61493
        233        Structure          0.60320      0.59805      0.61493
        234        Structure          0.60320      0.59805      0.61493
        235        Structure          0.00000     -0.00258      0.00586
        236        Structure          0.00000     -0.00258      0.00586
        237        Structure          0.00000     -0.00258      0.00586
        238        Structure          0.78457      0.78118      0.79198
        239        Structure          0.78457      0.78118      0.79198
        240        Structure          0.78457      0.78118      0.79198
        241        Structure          0.21543      0.21367      0.21975
        242        Structure          0.21543      0.21367      0.21975
        243        Structure          0.21543      0.21367      0.21975
        244        Structure          4.33000      4.39619      4.35649
        245        Structure          4.33000      4.39619      4.35649
        246        Structure         31.43290     28.49465     31.37389
        247        Structure         90.00000     90.00000     90.00000
        248        Structure         90.00000     90.00000     90.00000
        249        Structure        120.00000    120.00000    120.00000
        250        Structure          0.66667      0.66667      0.66667
        251        Structure          0.33333      0.33333      0.33333
        252        Structure          0.27003      0.26456      0.28144
        253        Structure          0.00000     -0.00000      0.00000
        254        Structure          0.00000      0.00000     -0.00000
        255        Structure          0.39664      0.39664      0.39664
        256        Structure          0.00000      0.00000      0.00000
        257        Structure          0.00000     -0.00000     -0.00000
        258        Structure          0.60336      0.59790      0.61477
        259        Structure          0.33333      0.33333      0.33333
        260        Structure          0.66667      0.66667      0.66667
        261        Structure          0.72997      0.72997      0.72997
        262        Structure          0.33333      0.33333      0.33333
        263        Structure          0.66667      0.66667      0.66667
        264        Structure          0.93669      0.93123      0.94810
        265        Structure          0.00000      0.00000      0.00000
        266        Structure          0.00000     -0.00000     -0.00000
        267        Structure          0.00000     -0.00273      0.00570
        268        Structure          0.33333      0.33333      0.33333
        269        Structure          0.66667      0.66667      0.66667
        270        Structure          0.11759      0.11436      0.12515
        271        Structure          0.00000     -0.00000      0.00000
        272        Structure          0.00000      0.00000     -0.00000
        273        Structure          0.21574      0.21351      0.21959
        274        Structure          0.33333      0.33333      0.33333
        275        Structure          0.66667      0.66667      0.66667
        276        Structure          0.33333      0.33060      0.33904
        277        Structure          0.66667      0.66667      0.66667
        278        Structure          0.33333      0.33333      0.33333
        279        Structure          0.45092      0.44769      0.45849
        280        Structure          0.33333      0.33333      0.33333
        281        Structure          0.66667      0.66667      0.66667
        282        Structure          0.54908      0.54684      0.55292
        283        Structure          0.66667      0.66667      0.66667
        284        Structure          0.33333      0.33333      0.33333
        285        Structure          0.66667      0.66393      0.67237
        286        Structure          0.00000      0.00000      0.00000
        287        Structure          0.00000     -0.00000     -0.00000
        288        Structure          0.78426      0.78103      0.79182
        289        Structure          0.66667      0.66667      0.66667
        290        Structure          0.33333      0.33333      0.33333
        291        Structure          0.88241      0.88018      0.88626

  Maximum range for interatomic potentials =         8.000000 Angstroms

  Taper potentials to zero over   8.0000 Angstroms using Voter m =  20.0000

  General interatomic potentials :

Atom  Types   Potential         A         B         C         D     Cutoffs(Ang)
  1     2                                                            Min    Max
Sb   c Te2  c Morse         0.258E-01  2.42     3.27     0.00       0.000 12.000
Sb   c Te1  c Morse         0.674E-01  1.58     3.23     0.00       0.000 12.000
Sb   c Sb   c Morse         0.706E-01  2.10     4.39     0.00       0.000 12.000
Te1  c Te1  c Morse         0.302E-01  1.97     4.63     0.00       0.000 12.000
Te1  c Te2  c Morse         0.946E-01 0.671     4.67     0.00       0.000 12.000
Te2  c Te2  c Morse         0.926E-01  1.55     3.95     0.00       0.000 12.000

  Energy shifts for configurations :

      Configuration           Energy (eV)        Scale Factor
             1               -15.1710                 1.000
             2               -15.1710                 1.000
             3               -15.1710                 1.000
             4               -15.1710                 1.000
             5               -15.1710                 1.000
             6               -15.1710                 1.000
             7               -15.1710                 1.000
             8               -15.1710                 1.000
             9               -15.1710                 1.000
            10               -15.1710                 1.000
            11               -15.1710                 1.000
            12               -15.1710                 1.000
            13               -15.1710                 1.000
            14               -15.1710                 1.000
            15               -15.1710                 1.000
            16               -15.1710                 1.000
            17               -15.1710                 1.000
            18               -15.1710                 1.000
            19               -15.1710                 1.000
            20               -15.1710                 1.000
            21               -15.1710                 1.000
            22               -15.1710                 1.000
            23               -15.1710                 1.000
            24               -15.1710                 1.000
            25               -15.1710                 1.000
            26               -15.1710                 1.000
            27               -15.1710                 1.000
            28               -15.1710                 1.000
            29               -15.1710                 1.000
            30               -15.1710                 1.000
            31               -15.1710                 1.000
            32               -15.1710                 1.000
            33               -15.1710                 1.000
            34               -15.1710                 1.000
            35               -15.1710                 1.000
            36               -15.1710                 1.000
            37               -15.1710                 1.000
            38               -15.1710                 1.000
            39               -15.1710                 1.000
            40               -15.1710                 1.000
            41               -15.1710                 1.000
            42               -15.1710                 1.000
            43               -15.1710                 1.000
            44               -15.1710                 1.000
            45               -15.1710                 1.000
            46               -15.1710                 1.000
            47               -15.1710                 1.000
            48               -15.1710                 1.000
            49               -15.1710                 1.000
            50               -15.1710                 1.000
            51               -15.1710                 1.000
            52               -15.1710                 1.000
            53               -15.1710                 1.000
            54               -15.1710                 1.000
            55               -15.1710                 1.000
            56               -15.1710                 1.000
            57               -15.1710                 1.000
            58               -15.1710                 1.000
            59               -15.1710                 1.000
            60               -15.1710                 1.000
[...]
           205               -15.1710                 1.000
           206               -15.1710                 1.000
           207               -15.1710                 1.000
           208               -15.1710                 1.000
           209               -15.1710                 1.000
           210               -15.1710                 1.000
           211               -15.1710                 1.000
           212               -15.1710                 1.000
           213               -15.1710                 1.000
           214               -15.1710                 1.000
           215               -15.1710                 1.000
           216               -15.1710                 1.000
           217               -15.1710                 1.000
           218               -15.1710                 1.000
           219               -15.1710                 1.000

  Total time to end of fitting =    3501.1748 seconds

*  Output for configuration   1                                                *

  Components of energy :

  Interatomic potentials     =          -1.98460062 eV
  Monopole - monopole (real) =           0.00000000 eV
  Monopole - monopole (recip)=           0.00000000 eV
  Monopole - monopole (total)=           0.00000000 eV
  Energy shift               =         -15.17099465 eV
  Total lattice energy       =         -17.15559527 eV
  Total lattice energy       =           -1655.2527 kJ/(mole unit cells)

  Elastic Constant Matrix: (Units=GPa)

  Indices      1         2         3         4         5         6
       1     43.8288   13.8438    6.2622   -0.0000   -0.1755   -0.0000
       2     13.8438   43.8288    6.2622   -0.0000    0.1755   -0.0000
       3      6.2622    6.2622   21.0622   -0.0000    0.0000   -0.0000
       4     -0.0000   -0.0000   -0.0000    3.3695   -0.0000    0.1755
       5     -0.1755    0.1755    0.0000   -0.0000    3.3695   -0.0000
       6     -0.0000   -0.0000   -0.0000    0.1755   -0.0000   14.9925

  Elastic Compliance Matrix: (Units=1/GPa)

[...]

 Mechanical properties :

  Convention :                    Reuss         Voigt         Hill
  Bulk  Modulus (GPa)     =      15.20147      17.93960      16.57053
  Shear Modulus (GPa)     =       6.08176       9.83640       7.95908
  Velocity S-wave (km/s)  =       3.15453       4.01178       3.60870
  Velocity P-wave (km/s)  =       6.17583       7.12826       6.66907
  Compressibility (1/GPa) =    0.06578310
  Stress axis :                     x             y             z
  Youngs Moduli (GPa)     =      38.53085      38.53085      19.70226
  Poissons Ratio (x)      =                     0.28579       0.10858
  Poissons Ratio (y)      =       0.28579                     0.10858
  Poissons Ratio (z)      =       0.21235       0.21235

  Piezoelectric Strain Matrix: (Units=C/m**2)

  Indices      1         2         3         4         5         6
       x    -0.00000  -0.00000  -0.00000  -0.00000  -0.00000  -0.00000
       y    -0.00000  -0.00000  -0.00000  -0.00000  -0.00000  -0.00000
       z    -0.00000  -0.00000  -0.00000  -0.00000  -0.00000  -0.00000

  Piezoelectric Stress Matrix: (Units=10**-11 C/N)

[...]

  Static dielectric constant tensor :

              x         y         z
       x     1.00000   0.00000   0.00000
       y     0.00000   1.00000   0.00000
       z     0.00000   0.00000   1.00000

  Static refractive indices :

    1 =    1.00000      2 =    1.00000      3 =    1.00000

  Time to end of properties =    3501.1788 seconds

[...]

*  Output for configuration 219                                                *

  Components of energy :

  Interatomic potentials     =          -7.57247481 eV
  Monopole - monopole (real) =           0.00000000 eV
  Monopole - monopole (recip)=           0.00000000 eV
  Monopole - monopole (total)=           0.00000000 eV
  Energy shift               =         -15.17099465 eV
  Total lattice energy       =         -22.74346946 eV
  Total lattice energy       =           -2194.3971 kJ/(mole unit cells)

  Elastic Constant Matrix: (Units=GPa)

[...]

  Elastic Compliance Matrix: (Units=1/GPa)

  Indices      1         2         3         4         5         6
       1    0.022005 -0.008219 -0.007387 -0.019032 -0.000000  0.000000
       2   -0.008219  0.022005 -0.007387  0.019032  0.000000 -0.000000
       3   -0.007387 -0.007387  0.054922  0.000000 -0.000000  0.000000
       4   -0.019032  0.019032  0.000000  0.129075  0.000000 -0.000000
       5   -0.000000  0.000000 -0.000000  0.000000  0.129075 -0.038065
       6    0.000000 -0.000000  0.000000 -0.000000 -0.038065  0.060448

 Mechanical properties :

  Convention :                    Reuss         Voigt         Hill
  Bulk  Modulus (GPa)     =      18.88682      26.26440      22.57561
  Shear Modulus (GPa)     =      10.39150      14.65567      12.52359
  Velocity S-wave (km/s)  =       4.12292       4.89631       4.52616
  Velocity P-wave (km/s)  =       7.31845       8.65612       8.01524
  Compressibility (1/GPa) =    0.05294698
  Stress axis :                     x             y             z
  Youngs Moduli (GPa)     =      45.44471      45.44471      18.20763
  Poissons Ratio (x)      =                     0.37352       0.13449
  Poissons Ratio (y)      =       0.37352                     0.13449
  Poissons Ratio (z)      =       0.33568       0.33568

  Piezoelectric Strain Matrix: (Units=C/m**2)

[...]

  Piezoelectric Stress Matrix: (Units=10**-11 C/N)

  Indices      1         2         3         4         5         6
       x     0.00000   0.00000   0.00000   0.00000   0.00000   0.00000
       y     0.00000   0.00000   0.00000   0.00000   0.00000   0.00000
       z     0.00000   0.00000   0.00000   0.00000   0.00000   0.00000

  Static dielectric constant tensor :

              x         y         z
       x     1.00000   0.00000   0.00000
       y     0.00000   1.00000   0.00000
       z     0.00000   0.00000   1.00000

  Static refractive indices :

    1 =    1.00000      2 =    1.00000      3 =    1.00000

  Time to end of properties =    3501.7868 seconds

  Timing analysis for GULP :

  Task / Subroutine                                          Time (Seconds)
  Calculation of real space energy and derivatives             3336.8005
  Sum of squares for fitting                                   2347.6349
  Global summation overhead                                       1.6481

  Dump file written as sb2te3_21.res

  Job Finished at 11:52.38 30th July       2010