  Job Started  at 21:42.46 22nd July       2010

  Number of CPUs =     1

  Total number of configurations input = 219

*  Input for Configuration =   1                                               *

  Formula = Sb2Te3

  Number of irreducible atoms/shells =       5

  Total number atoms/shells =       5

  Dimensionality = 3               :  Bulk

  Cartesian lattice vectors (Angstroms) :

       -2.504286    0.000000   10.443767
        1.252143   -2.168775   10.443767
        1.252143    2.168775   10.443767

  Cell parameters (Angstroms/Degrees):

  a =      10.7398    alpha =  23.3006
  b =      10.7398    beta  =  23.3006
  c =      10.7398    gamma =  23.3006

  Initial cell volume =         170.167643 Angs**3

  Temperature of configuration =  0.000     K

  Pressure of configuration =         0.000 GPa

  Fractional coordinates of asymmetric unit :

   No.  Atomic       x           y          z         Charge      Occupancy
        Label      (Frac)      (Frac)     (Frac)        (e)         (Frac)
      1 Sb    c    0.369021    0.369021    0.369021      0.0000    1.000000
      2 Sb    c    0.603203    0.603203    0.603203      0.0000    1.000000
      3 Te1   c    0.000000    0.000000    0.000000      0.0000    1.000000
      4 Te2   c    0.784571    0.784571    0.784571      0.0000    1.000000
      5 Te2   c    0.215429    0.215429    0.215429      0.0000    1.000000

[...]

   No.  Atomic       x           y          z         Charge      Occupancy
        Label      (Frac)      (Frac)     (Frac)        (e)         (Frac)
      1 Sb    c    0.666667    0.333333    0.063305      0.0000    1.000000
      2 Sb    c    0.666667    0.333333    0.270028      0.0000    1.000000
      3 Sb    c    0.000000    0.000000    0.396639      0.0000    1.000000
      4 Sb    c    0.000000    0.000000    0.603361      0.0000    1.000000
      5 Sb    c    0.333333    0.666667    0.729972      0.0000    1.000000
      6 Sb    c    0.333333    0.666667    0.936695      0.0000    1.000000
      7 Te1   c    0.000000    0.000000    0.000000      0.0000    1.000000
      8 Te2   c    0.333333    0.666667    0.117591      0.0000    1.000000
      9 Te2   c    0.000000    0.000000    0.215743      0.0000    1.000000
     10 Te1   c    0.333333    0.666667    0.333333      0.0000    1.000000
     11 Te2   c    0.666667    0.333333    0.450924      0.0000    1.000000
     12 Te2   c    0.333333    0.666667    0.549076      0.0000    1.000000
     13 Te1   c    0.666667    0.333333    0.666667      0.0000    1.000000
     14 Te2   c    0.000000    0.000000    0.784257      0.0000    1.000000
     15 Te2   c    0.666667    0.333333    0.882409      0.0000    1.000000

[...]

   No.  Atomic       x           y          z         Charge      Occupancy
        Label      (Frac)      (Frac)     (Frac)        (e)         (Frac)
      1 Sb    c    0.396797    0.396797    0.396797      0.0000    1.000000
      2 Sb    c    0.603203 *  0.603203 *  0.603203 *    0.0000    1.000000
      3 Te1   c    0.000000 *  0.000000 *  0.000000 *    0.0000    1.000000
      4 Te2   c    0.784571 *  0.784571 *  0.784571 *    0.0000    1.000000
      5 Te2   c    0.215429 *  0.215429 *  0.215429 *    0.0000    1.000000

*  Input for Configuration = 219                                               *

  Formula = Sb6Te9

  Number of irreducible atoms/shells =      15

  Total number atoms/shells =      15

  Dimensionality = 3               :  Bulk

  Cartesian lattice vectors (Angstroms) :

        4.330000    0.000000    0.000000
       -2.165000    3.749890    0.000000
        0.000000    0.000000   31.432900

  Cell parameters (Angstroms/Degrees):

  a =       4.3300    alpha =  90.0000
  b =       4.3300    beta  =  90.0000
  c =      31.4329    gamma = 120.0000

  Initial cell volume =         510.376742 Angs**3

  Temperature of configuration =  0.000     K

  Pressure of configuration =         0.000 GPa

  Fractional coordinates of asymmetric unit :

   No.  Atomic       x           y          z         Charge      Occupancy
        Label      (Frac)      (Frac)     (Frac)        (e)         (Frac)
      1 Sb    c    0.666667    0.333333    0.063305      0.0000    1.000000
      2 Sb    c    0.666667 *  0.333333 *  0.270028 *    0.0000    1.000000
      3 Sb    c    0.000000 *  0.000000 *  0.396639 *    0.0000    1.000000
      4 Sb    c    0.000000 *  0.000000 *  0.603361 *    0.0000    1.000000
      5 Sb    c    0.333333 *  0.666667 *  0.729972 *    0.0000    1.000000
      6 Sb    c    0.333333 *  0.666667 *  0.936695 *    0.0000    1.000000
      7 Te1   c    0.000000 *  0.000000 *  0.000000 *    0.0000    1.000000
      8 Te2   c    0.333333 *  0.666667 *  0.117591 *    0.0000    1.000000
      9 Te2   c    0.000000 *  0.000000 *  0.215743 *    0.0000    1.000000
     10 Te1   c    0.333333 *  0.666667 *  0.333333 *    0.0000    1.000000
     11 Te2   c    0.666667 *  0.333333 *  0.450924 *    0.0000    1.000000
     12 Te2   c    0.333333 *  0.666667 *  0.549076 *    0.0000    1.000000
     13 Te1   c    0.666667 *  0.333333 *  0.666667 *    0.0000    1.000000
     14 Te2   c    0.000000 *  0.000000 *  0.784257 *    0.0000    1.000000
     15 Te2   c    0.666667 *  0.333333 *  0.882409 *    0.0000    1.000000

*  General input information                                                   *

  Species output for all configurations :

  Species    Type    Atomic    Atomic    Charge       Radii (Angs)     Library
                     Number     Mass       (e)     Cova   Ionic  VDW   Symbol
    Sb       Core       51     121.75     0.0000   1.460  0.000  2.170
    Te1      Core       52     127.60     0.0000   1.470  0.000  2.200
    Te2      Core       52     127.60     0.0000   1.470  0.000  2.200

  Lattice summation method               =    Ewald
  Accuracy factor for lattice sums       =    8.000

  Time limit = Infinity

  Maximum range for interatomic potentials =         8.000000 Angstroms

  Taper potentials to zero over   8.0000 Angstroms using Voter m =  20.0000

  General interatomic potentials :

Atom  Types   Potential         A         B         C         D     Cutoffs(Ang)
  1     2                                                            Min    Max
Sb   c Te2  c Morse         0.805E-01  3.12     3.00     0.00       0.000 12.000
Sb   c Te1  c Morse         0.109      2.06     3.20     0.00       0.000 12.000
Sb   c Sb   c Morse         0.791E-01  1.51     4.67     0.00       0.000 12.000
Te1  c Te1  c Morse         0.974E-01 0.423     4.64     0.00       0.000 12.000
Te2  c Te2  c Morse         0.127     0.908     3.95     0.00       0.000 12.000

  Energy shifts for configurations :

      Configuration           Energy (eV)        Scale Factor
             1               -14.6000                 1.000
             2               -14.6000                 1.000
             3               -14.6000                 1.000
             4               -14.6000                 1.000
             5               -14.6000                 1.000
             6               -14.6000                 1.000
             7               -14.6000                 1.000
             8               -14.6000                 1.000
             9               -14.6000                 1.000
            10               -14.6000                 1.000
            11               -14.6000                 1.000
            12               -14.6000                 1.000
            13               -14.6000                 1.000
            14               -14.6000                 1.000
            15               -14.6000                 1.000
            16               -14.6000                 1.000
            17               -14.6000                 1.000
            18               -14.6000                 1.000
            19               -14.6000                 1.000
            20               -14.6000                 1.000
            21               -14.6000                 1.000
            22               -14.6000                 1.000
            23               -14.6000                 1.000
            24               -14.6000                 1.000
            25               -14.6000                 1.000
            26               -14.6000                 1.000
            27               -14.6000                 1.000
            28               -14.6000                 1.000
            29               -14.6000                 1.000
            30               -14.6000                 1.000
            31               -14.6000                 1.000
            32               -14.6000                 1.000
            33               -14.6000                 1.000
            34               -14.6000                 1.000
            35               -14.6000                 1.000
            36               -14.6000                 1.000
            37               -14.6000                 1.000
            38               -14.6000                 1.000
            39               -14.6000                 1.000
            40               -14.6000                 1.000
            41               -14.6000                 1.000
            42               -14.6000                 1.000
            43               -14.6000                 1.000
            44               -14.6000                 1.000
            45               -14.6000                 1.000
            46               -14.6000                 1.000
            47               -14.6000                 1.000
            48               -14.6000                 1.000
            49               -14.6000                 1.000
            50               -14.6000                 1.000
            51               -14.6000                 1.000
            52               -14.6000                 1.000
            53               -14.6000                 1.000
            54               -14.6000                 1.000
            55               -14.6000                 1.000
            56               -14.6000                 1.000
            57               -14.6000                 1.000
            58               -14.6000                 1.000
            59               -14.6000                 1.000
            60               -14.6000                 1.000
[...]
           205               -14.6000                 1.000
           206               -14.6000                 1.000
           207               -14.6000                 1.000
           208               -14.6000                 1.000
           209               -14.6000                 1.000
           210               -14.6000                 1.000
           211               -14.6000                 1.000
           212               -14.6000                 1.000
           213               -14.6000                 1.000
           214               -14.6000                 1.000
           215               -14.6000                 1.000
           216               -14.6000                 1.000
           217               -14.6000                 1.000
[...]
        212        Energy           -18.24158    -17.56025    -18.61725
        213        Energy           -18.12995    -17.51879    -18.59913
        214        Energy           -17.71105    -17.38255    -18.41639
        215        Energy           -17.14606    -17.14989    -18.09890
        216        Energy           -16.60068    -16.79343    -17.61740
        217        Elastic Const     64.99800     63.22947     58.12292
        218        Elastic Const     64.99800     63.22947     58.12292
        219        Elastic Const     15.90000     15.78738     21.40916
        220        Elastic Const     15.38046     22.85096     21.68167
        221        Elastic Const     11.74897     10.28365     20.60329
        222        Elastic Const      7.35000      3.88543     11.48464
        223        Elastic Const     11.80000      5.10186     15.88832
        224        Elastic Const     11.80000      5.10186     15.88832
        225        Elastic Const     24.81000     20.18925     18.22063
        226        Structure         10.73980      9.25688     10.88988
        227        Structure         10.73980      9.25688     10.88988
        228        Structure         10.73980      9.25688     10.88988
        229        Structure         23.30000     28.65933     23.53932
        230        Structure         23.30000     28.65933     23.53932
        231        Structure         23.30000     28.65933     23.53932
        232        Structure          0.60320      0.59041      0.59894
        233        Structure          0.60320      0.59041      0.59894
        234        Structure          0.60320      0.59041      0.59894
        235        Structure          0.00000     -0.00640     -0.00213
        236        Structure          0.00000     -0.00640     -0.00213
        237        Structure          0.00000     -0.00640     -0.00213
        238        Structure          0.78457      0.77880      0.78372
        239        Structure          0.78457      0.77880      0.78372
        240        Structure          0.78457      0.77880      0.78372
        241        Structure          0.21543      0.20840      0.21201
        242        Structure          0.21543      0.20840      0.21201
        243        Structure          0.21543      0.20840      0.21201
        244        Structure          4.33000      4.58173      4.44243
        245        Structure          4.33000      4.58173      4.44243
        246        Structure         31.43290     26.61278     31.75398
        247        Structure         90.00000     90.00000     90.00000
        248        Structure         90.00000     90.00000     90.00000
        249        Structure        120.00000    120.00000    120.00000
        250        Structure          0.66667      0.66667      0.66667
        251        Structure          0.33333      0.33333      0.33333
        252        Structure          0.27003      0.25693      0.26546
        253        Structure          0.00000      0.00000     -0.00000
        254        Structure          0.00000     -0.00000      0.00000
        255        Structure          0.39664      0.39664      0.39664
        256        Structure          0.00000      0.00000     -0.00000
        257        Structure          0.00000     -0.00000      0.00000
        258        Structure          0.60336      0.59026      0.59879
        259        Structure          0.33333      0.33333      0.33333
        260        Structure          0.66667      0.66667      0.66667
        261        Structure          0.72997      0.72997      0.72997
        262        Structure          0.33333      0.33333      0.33333
        263        Structure          0.66667      0.66667      0.66667
        264        Structure          0.93669      0.92359      0.93212
        265        Structure          0.00000      0.00000     -0.00000
        266        Structure          0.00000     -0.00000      0.00000
        267        Structure          0.00000     -0.00655     -0.00229
        268        Structure          0.33333      0.33333      0.33333
        269        Structure          0.66667      0.66667      0.66667
        270        Structure          0.11759      0.11199      0.11690
        271        Structure          0.00000      0.00000     -0.00000
        272        Structure          0.00000     -0.00000      0.00000
        273        Structure          0.21574      0.20824      0.21186
        274        Structure          0.33333      0.33333      0.33333
        275        Structure          0.66667      0.66667      0.66667
        276        Structure          0.33333      0.32678      0.33105
        277        Structure          0.66667      0.66667      0.66667
        278        Structure          0.33333      0.33333      0.33333
        279        Structure          0.45092      0.44533      0.45024
        280        Structure          0.33333      0.33333      0.33333
        281        Structure          0.66667      0.66667      0.66667
        282        Structure          0.54908      0.54157      0.54519
        283        Structure          0.66667      0.66667      0.66667
        284        Structure          0.33333      0.33333      0.33333
        285        Structure          0.66667      0.66012      0.66438
        286        Structure          0.00000     -0.00000      0.00000
        287        Structure          0.00000      0.00000     -0.00000
        288        Structure          0.78426      0.77866      0.78357
        289        Structure          0.66667      0.66667      0.66667
        290        Structure          0.33333      0.33333      0.33333
        291        Structure          0.88241      0.87491      0.87852

  Maximum range for interatomic potentials =         8.000000 Angstroms

  Taper potentials to zero over   8.0000 Angstroms using Voter m =  20.0000

  General interatomic potentials :

Atom  Types   Potential         A         B         C         D     Cutoffs(Ang)
  1     2                                                            Min    Max
Sb   c Te2  c Morse         0.769E-01  2.16     3.12     0.00       0.000 12.000
Sb   c Te1  c Morse         0.251E-01  2.67     3.43     0.00       0.000 12.000
Sb   c Sb   c Morse         0.102      1.15     4.73     0.00       0.000 12.000
Te1  c Te1  c Morse         0.372E-01 0.543     4.85     0.00       0.000 12.000
Te2  c Te2  c Morse         0.233      1.05     4.08     0.00       0.000 12.000

  Energy shifts for configurations :

      Configuration           Energy (eV)        Scale Factor
             1               -15.2163                 1.000
             2               -15.2163                 1.000
             3               -15.2163                 1.000
             4               -15.2163                 1.000
             5               -15.2163                 1.000
             6               -15.2163                 1.000
             7               -15.2163                 1.000
             8               -15.2163                 1.000
             9               -15.2163                 1.000
            10               -15.2163                 1.000
            11               -15.2163                 1.000
            12               -15.2163                 1.000
            13               -15.2163                 1.000
            14               -15.2163                 1.000
            15               -15.2163                 1.000
            16               -15.2163                 1.000
            17               -15.2163                 1.000
            18               -15.2163                 1.000
            19               -15.2163                 1.000
            20               -15.2163                 1.000
            21               -15.2163                 1.000
            22               -15.2163                 1.000
            23               -15.2163                 1.000
            24               -15.2163                 1.000
            25               -15.2163                 1.000
            26               -15.2163                 1.000
            27               -15.2163                 1.000
            28               -15.2163                 1.000
            29               -15.2163                 1.000
            30               -15.2163                 1.000
            31               -15.2163                 1.000
            32               -15.2163                 1.000
            33               -15.2163                 1.000
            34               -15.2163                 1.000
            35               -15.2163                 1.000
            36               -15.2163                 1.000
            37               -15.2163                 1.000
            38               -15.2163                 1.000
            39               -15.2163                 1.000
            40               -15.2163                 1.000
            41               -15.2163                 1.000
            42               -15.2163                 1.000
            43               -15.2163                 1.000
            44               -15.2163                 1.000
            45               -15.2163                 1.000
            46               -15.2163                 1.000
            47               -15.2163                 1.000
            48               -15.2163                 1.000
            49               -15.2163                 1.000
            50               -15.2163                 1.000
            51               -15.2163                 1.000
            52               -15.2163                 1.000
            53               -15.2163                 1.000
            54               -15.2163                 1.000
            55               -15.2163                 1.000
            56               -15.2163                 1.000
            57               -15.2163                 1.000
            58               -15.2163                 1.000
            59               -15.2163                 1.000
            60               -15.2163                 1.000
[...]
           205               -15.2163                 1.000
           206               -15.2163                 1.000
           207               -15.2163                 1.000
           208               -15.2163                 1.000
           209               -15.2163                 1.000
           210               -15.2163                 1.000
           211               -15.2163                 1.000
           212               -15.2163                 1.000
           213               -15.2163                 1.000
           214               -15.2163                 1.000
           215               -15.2163                 1.000
           216               -15.2163                 1.000
           217               -15.2163                 1.000
           218               -15.2163                 1.000
           219               -15.2163                 1.000

  Total time to end of fitting =    3395.7522 seconds

*  Output for configuration   1                                                *

  Components of energy :

  Interatomic potentials     =          -0.88966797 eV
  Monopole - monopole (real) =           0.00000000 eV
  Monopole - monopole (recip)=           0.00000000 eV
  Monopole - monopole (total)=           0.00000000 eV
  Energy shift               =         -15.21626304 eV
  Total lattice energy       =         -16.10593101 eV
  Total lattice energy       =           -1553.9761 kJ/(mole unit cells)

  Elastic Constant Matrix: (Units=GPa)

  Indices      1         2         3         4         5         6
       1    -28.2147  -22.2696   14.2181   -0.0000   -1.2019    0.0000
       2    -22.2696  -28.2147   14.2181   -0.0000    1.2019    0.0000
       3     14.2181   14.2181   -6.5807   -0.0000    0.0000    0.0000
       4     -0.0000   -0.0000   -0.0000   -3.6788    0.0000    1.2019
       5     -1.2019    1.2019    0.0000    0.0000   -3.6788    0.0000
       6      0.0000    0.0000    0.0000    1.2019    0.0000   -2.9725

  Elastic Compliance Matrix: (Units=1/GPa)

[...]

 Mechanical properties :

  Convention :                    Reuss         Voigt         Hill
  Bulk  Modulus (GPa)     =       0.59816      -5.63074      -2.51629
  Shear Modulus (GPa)     =      -5.35916      -6.67781      -6.01848
  Velocity S-wave (km/s)  =      -2.96120      -3.30549      -3.13807
  Velocity P-wave (km/s)  =       3.27306       4.87662       4.15297
  Compressibility (1/GPa) =    1.67180581
  Stress axis :                     x             y             z
  Youngs Moduli (GPa)     =     -19.50803     -19.50803       1.42794
  Poissons Ratio (x)      =                     2.78082      -0.28164
  Poissons Ratio (y)      =       2.78082                    -0.28164
  Poissons Ratio (z)      =       3.84759       3.84759

  Piezoelectric Strain Matrix: (Units=C/m**2)

  Indices      1         2         3         4         5         6
       x    -0.00000  -0.00000  -0.00000  -0.00000  -0.00000  -0.00000
       y    -0.00000  -0.00000  -0.00000  -0.00000  -0.00000  -0.00000
       z    -0.00000  -0.00000  -0.00000  -0.00000  -0.00000  -0.00000

  Piezoelectric Stress Matrix: (Units=10**-11 C/N)

[...]

  Static dielectric constant tensor :

              x         y         z
       x     1.00000   0.00000   0.00000
       y     0.00000   1.00000   0.00000
       z     0.00000   0.00000   1.00000

  Static refractive indices :

    1 =    1.00000      2 =    1.00000      3 =    1.00000

  Time to end of properties =    3395.7522 seconds

[...]

*  Output for configuration 219                                                *

  Components of energy :

  Interatomic potentials     =         -10.29815550 eV
  Monopole - monopole (real) =           0.00000000 eV
  Monopole - monopole (recip)=           0.00000000 eV
  Monopole - monopole (total)=           0.00000000 eV
  Energy shift               =         -15.21626304 eV
  Total lattice energy       =         -25.51441854 eV
  Total lattice energy       =           -2461.7514 kJ/(mole unit cells)

  Elastic Constant Matrix: (Units=GPa)

[...]

  Elastic Compliance Matrix: (Units=1/GPa)

  Indices      1         2         3         4         5         6
       1    0.037657 -0.012750 -0.023970 -0.036436 -0.000000  0.000000
       2   -0.012750  0.037657 -0.023970  0.036436  0.000000 -0.000000
       3   -0.023970 -0.023970  0.092844  0.000000 -0.000000  0.000000
       4   -0.036436  0.036436  0.000000  0.115614  0.000000 -0.000000
       5   -0.000000  0.000000 -0.000000  0.000000  0.115614 -0.072873
       6    0.000000 -0.000000  0.000000 -0.000000 -0.072873  0.100815

 Mechanical properties :

  Convention :                    Reuss         Voigt         Hill
  Bulk  Modulus (GPa)     =      21.37685      29.27017      25.32351
  Shear Modulus (GPa)     =       7.84714      14.98390      11.41552
  Velocity S-wave (km/s)  =       3.58279       4.95083       4.32129
  Velocity P-wave (km/s)  =       7.21689       8.97559       8.14385
  Compressibility (1/GPa) =    0.04677957
  Stress axis :                     x             y             z
  Youngs Moduli (GPa)     =      26.55519      26.55519      10.77078
  Poissons Ratio (x)      =                     0.33859       0.25817
  Poissons Ratio (y)      =       0.33859                     0.25817
  Poissons Ratio (z)      =       0.63652       0.63652

  Piezoelectric Strain Matrix: (Units=C/m**2)

[...]

  Piezoelectric Stress Matrix: (Units=10**-11 C/N)

  Indices      1         2         3         4         5         6
       x     0.00000   0.00000   0.00000   0.00000   0.00000   0.00000
       y     0.00000   0.00000   0.00000   0.00000   0.00000   0.00000
       z     0.00000   0.00000   0.00000   0.00000   0.00000   0.00000

  Static dielectric constant tensor :

              x         y         z
       x     1.00000   0.00000   0.00000
       y     0.00000   1.00000   0.00000
       z     0.00000   0.00000   1.00000

  Static refractive indices :

    1 =    1.00000      2 =    1.00000      3 =    1.00000

  Time to end of properties =    3396.3843 seconds

  Timing analysis for GULP :

  Task / Subroutine                                          Time (Seconds)
  Calculation of real space energy and derivatives             3223.4015
  Sum of squares for fitting                                   2257.9895
  Global summation overhead                                       1.6681

  Dump file written as sb2te3_15.res

  Job Finished at 22:39.34 22nd July       2010