  Job Started  at 15:00.53 22nd July       2010

  Number of CPUs =     1

  Total number of configurations input = 219

*  Input for Configuration =   1                                               *

  Formula = Sb2Te3

  Number of irreducible atoms/shells =       5

  Total number atoms/shells =       5

  Dimensionality = 3               :  Bulk

  Cartesian lattice vectors (Angstroms) :

       -2.504286    0.000000   10.443767
        1.252143   -2.168775   10.443767
        1.252143    2.168775   10.443767

  Cell parameters (Angstroms/Degrees):

  a =      10.7398    alpha =  23.3006
  b =      10.7398    beta  =  23.3006
  c =      10.7398    gamma =  23.3006

  Initial cell volume =         170.167643 Angs**3

  Temperature of configuration =  0.000     K

  Pressure of configuration =         0.000 GPa

  Fractional coordinates of asymmetric unit :

   No.  Atomic       x           y          z         Charge      Occupancy
        Label      (Frac)      (Frac)     (Frac)        (e)         (Frac)
      1 Sb    c    0.369021    0.369021    0.369021      0.0000    1.000000
      2 Sb    c    0.603203    0.603203    0.603203      0.0000    1.000000
      3 Te1   c    0.000000    0.000000    0.000000      0.0000    1.000000
      4 Te2   c    0.784571    0.784571    0.784571      0.0000    1.000000
      5 Te2   c    0.215429    0.215429    0.215429      0.0000    1.000000

[...]

   No.  Atomic       x           y          z         Charge      Occupancy
        Label      (Frac)      (Frac)     (Frac)        (e)         (Frac)
      1 Sb    c    0.666667    0.333333    0.063305      0.0000    1.000000
      2 Sb    c    0.666667    0.333333    0.270028      0.0000    1.000000
      3 Sb    c    0.000000    0.000000    0.396639      0.0000    1.000000
      4 Sb    c    0.000000    0.000000    0.603361      0.0000    1.000000
      5 Sb    c    0.333333    0.666667    0.729972      0.0000    1.000000
      6 Sb    c    0.333333    0.666667    0.936695      0.0000    1.000000
      7 Te1   c    0.000000    0.000000    0.000000      0.0000    1.000000
      8 Te2   c    0.333333    0.666667    0.117591      0.0000    1.000000
      9 Te2   c    0.000000    0.000000    0.215743      0.0000    1.000000
     10 Te1   c    0.333333    0.666667    0.333333      0.0000    1.000000
     11 Te2   c    0.666667    0.333333    0.450924      0.0000    1.000000
     12 Te2   c    0.333333    0.666667    0.549076      0.0000    1.000000
     13 Te1   c    0.666667    0.333333    0.666667      0.0000    1.000000
     14 Te2   c    0.000000    0.000000    0.784257      0.0000    1.000000
     15 Te2   c    0.666667    0.333333    0.882409      0.0000    1.000000

[...]

   No.  Atomic       x           y          z         Charge      Occupancy
        Label      (Frac)      (Frac)     (Frac)        (e)         (Frac)
      1 Sb    c    0.396797    0.396797    0.396797      0.0000    1.000000
      2 Sb    c    0.603203 *  0.603203 *  0.603203 *    0.0000    1.000000
      3 Te1   c    0.000000 *  0.000000 *  0.000000 *    0.0000    1.000000
      4 Te2   c    0.784571 *  0.784571 *  0.784571 *    0.0000    1.000000
      5 Te2   c    0.215429 *  0.215429 *  0.215429 *    0.0000    1.000000

*  Input for Configuration = 219                                               *

  Formula = Sb6Te9

  Number of irreducible atoms/shells =      15

  Total number atoms/shells =      15

  Dimensionality = 3               :  Bulk

  Cartesian lattice vectors (Angstroms) :

[...]

  Cell parameters (Angstroms/Degrees):

  a =       4.3300    alpha =  90.0000
  b =       4.3300    beta  =  90.0000
  c =      31.4329    gamma = 120.0000

  Initial cell volume =         510.376742 Angs**3

  Temperature of configuration =  0.000     K

  Pressure of configuration =         0.000 GPa

  Fractional coordinates of asymmetric unit :

   No.  Atomic       x           y          z         Charge      Occupancy
        Label      (Frac)      (Frac)     (Frac)        (e)         (Frac)
      1 Sb    c    0.666667    0.333333    0.063305      0.0000    1.000000
      2 Sb    c    0.666667 *  0.333333 *  0.270028 *    0.0000    1.000000
      3 Sb    c    0.000000 *  0.000000 *  0.396639 *    0.0000    1.000000
      4 Sb    c    0.000000 *  0.000000 *  0.603361 *    0.0000    1.000000
      5 Sb    c    0.333333 *  0.666667 *  0.729972 *    0.0000    1.000000
      6 Sb    c    0.333333 *  0.666667 *  0.936695 *    0.0000    1.000000
      7 Te1   c    0.000000 *  0.000000 *  0.000000 *    0.0000    1.000000
      8 Te2   c    0.333333 *  0.666667 *  0.117591 *    0.0000    1.000000
      9 Te2   c    0.000000 *  0.000000 *  0.215743 *    0.0000    1.000000
     10 Te1   c    0.333333 *  0.666667 *  0.333333 *    0.0000    1.000000
     11 Te2   c    0.666667 *  0.333333 *  0.450924 *    0.0000    1.000000
     12 Te2   c    0.333333 *  0.666667 *  0.549076 *    0.0000    1.000000
     13 Te1   c    0.666667 *  0.333333 *  0.666667 *    0.0000    1.000000
     14 Te2   c    0.000000 *  0.000000 *  0.784257 *    0.0000    1.000000
     15 Te2   c    0.666667 *  0.333333 *  0.882409 *    0.0000    1.000000

*  General input information                                                   *

  Species output for all configurations :

  Species    Type    Atomic    Atomic    Charge       Radii (Angs)     Library
                     Number     Mass       (e)     Cova   Ionic  VDW   Symbol
    Sb       Core       51     121.75     0.0000   1.460  0.000  2.170
    Te1      Core       52     127.60     0.0000   1.470  0.000  2.200
    Te2      Core       52     127.60     0.0000   1.470  0.000  2.200

  Lattice summation method               =    Ewald
  Accuracy factor for lattice sums       =    8.000

  Time limit = Infinity

  Maximum range for interatomic potentials =         8.000000 Angstroms

  Taper potentials to zero over   8.0000 Angstroms using Voter m =  20.0000

  General interatomic potentials :

Atom  Types   Potential         A         B         C         D     Cutoffs(Ang)
  1     2                                                            Min    Max
Sb   c Te2  c Morse         0.221      3.46     3.03     0.00       0.000 12.000
Sb   c Te1  c Morse         0.193      1.55     3.20     0.00       0.000 12.000
Sb   c Sb   c Morse         0.124      1.21     4.67     0.00       0.000 12.000
Te1  c Te1  c Morse         0.202      1.30     4.35     0.00       0.000 12.000
Te2  c Te2  c Morse         0.206     0.893     3.83     0.00       0.000 12.000

  Energy shifts for configurations :

      Configuration           Energy (eV)        Scale Factor
             1               -14.6000                 1.000
             2               -14.6000                 1.000
             3               -14.6000                 1.000
             4               -14.6000                 1.000
             5               -14.6000                 1.000
             6               -14.6000                 1.000
             7               -14.6000                 1.000
             8               -14.6000                 1.000
             9               -14.6000                 1.000
            10               -14.6000                 1.000
            11               -14.6000                 1.000
            12               -14.6000                 1.000
            13               -14.6000                 1.000
            14               -14.6000                 1.000
            15               -14.6000                 1.000
            16               -14.6000                 1.000
            17               -14.6000                 1.000
            18               -14.6000                 1.000
            19               -14.6000                 1.000
            20               -14.6000                 1.000
            21               -14.6000                 1.000
            22               -14.6000                 1.000
            23               -14.6000                 1.000
            24               -14.6000                 1.000
            25               -14.6000                 1.000
            26               -14.6000                 1.000
            27               -14.6000                 1.000
            28               -14.6000                 1.000
            29               -14.6000                 1.000
            30               -14.6000                 1.000
            31               -14.6000                 1.000
            32               -14.6000                 1.000
            33               -14.6000                 1.000
            34               -14.6000                 1.000
            35               -14.6000                 1.000
            36               -14.6000                 1.000
            37               -14.6000                 1.000
            38               -14.6000                 1.000
            39               -14.6000                 1.000
            40               -14.6000                 1.000
            41               -14.6000                 1.000
            42               -14.6000                 1.000
            43               -14.6000                 1.000
            44               -14.6000                 1.000
            45               -14.6000                 1.000
            46               -14.6000                 1.000
            47               -14.6000                 1.000
            48               -14.6000                 1.000
            49               -14.6000                 1.000
            50               -14.6000                 1.000
            51               -14.6000                 1.000
            52               -14.6000                 1.000
            53               -14.6000                 1.000
            54               -14.6000                 1.000
            55               -14.6000                 1.000
            56               -14.6000                 1.000
            57               -14.6000                 1.000
            58               -14.6000                 1.000
            59               -14.6000                 1.000
            60               -14.6000                 1.000
[...]
           205               -14.6000                 1.000
           206               -14.6000                 1.000
           207               -14.6000                 1.000
           208               -14.6000                 1.000
           209               -14.6000                 1.000
           210               -14.6000                 1.000
           211               -14.6000                 1.000
           212               -14.6000                 1.000
           213               -14.6000                 1.000
           214               -14.6000                 1.000
           215               -14.6000                 1.000
           216               -14.6000                 1.000
           217               -14.6000                 1.000
           218               -14.6000                 1.000
           219               -14.6000                 1.000

  Number of variables   =   14
[...]
             6               -14.5639                 1.000
             7               -14.5639                 1.000
             8               -14.5639                 1.000
             9               -14.5639                 1.000
            10               -14.5639                 1.000
            11               -14.5639                 1.000
            12               -14.5639                 1.000
            13               -14.5639                 1.000
            14               -14.5639                 1.000
            15               -14.5639                 1.000
            16               -14.5639                 1.000
            17               -14.5639                 1.000
            18               -14.5639                 1.000
            19               -14.5639                 1.000
            20               -14.5639                 1.000
            21               -14.5639                 1.000
            22               -14.5639                 1.000
            23               -14.5639                 1.000
            24               -14.5639                 1.000
            25               -14.5639                 1.000
            26               -14.5639                 1.000
            27               -14.5639                 1.000
            28               -14.5639                 1.000
            29               -14.5639                 1.000
            30               -14.5639                 1.000
            31               -14.5639                 1.000
            32               -14.5639                 1.000
            33               -14.5639                 1.000
            34               -14.5639                 1.000
            35               -14.5639                 1.000
            36               -14.5639                 1.000
            37               -14.5639                 1.000
            38               -14.5639                 1.000
            39               -14.5639                 1.000
            40               -14.5639                 1.000
            41               -14.5639                 1.000
            42               -14.5639                 1.000
            43               -14.5639                 1.000
            44               -14.5639                 1.000
            45               -14.5639                 1.000
            46               -14.5639                 1.000
            47               -14.5639                 1.000
            48               -14.5639                 1.000
            49               -14.5639                 1.000
            50               -14.5639                 1.000
            51               -14.5639                 1.000
            52               -14.5639                 1.000
            53               -14.5639                 1.000
            54               -14.5639                 1.000
            55               -14.5639                 1.000
            56               -14.5639                 1.000
            57               -14.5639                 1.000
            58               -14.5639                 1.000
            59               -14.5639                 1.000
            60               -14.5639                 1.000
[...]
           205               -14.5639                 1.000
           206               -14.5639                 1.000
           207               -14.5639                 1.000
           208               -14.5639                 1.000
           209               -14.5639                 1.000
           210               -14.5639                 1.000
           211               -14.5639                 1.000
           212               -14.5639                 1.000
           213               -14.5639                 1.000
           214               -14.5639                 1.000
           215               -14.5639                 1.000
           216               -14.5639                 1.000
           217               -14.5639                 1.000
           218               -14.5639                 1.000
           219               -14.5639                 1.000

  Total time to end of fitting =    1959.5945 seconds

*  Output for configuration   1                                                *

!! WARNING : No variables to optimise - single point performed

  Components of energy :

  Interatomic potentials     =          -1.97430656 eV
  Monopole - monopole (real) =           0.00000000 eV
  Monopole - monopole (recip)=           0.00000000 eV
  Monopole - monopole (total)=           0.00000000 eV
  Energy shift               =         -14.56392568 eV
  Total lattice energy       =         -16.53823224 eV
  Total lattice energy       =           -1595.6866 kJ/(mole unit cells)

  Elastic Constant Matrix: (Units=GPa)

  Indices      1         2         3         4         5         6
       1     53.3908   18.5690   43.4427   -0.0000    5.3102    0.0000
       2     18.5690   53.3908   43.4427   -0.0000   -5.3102    0.0000
       3     43.4427   43.4427   81.4285   -0.0000   -0.0000   -0.0000
       4     -0.0000   -0.0000   -0.0000   11.7286    0.0000   -5.3102
       5      5.3102   -5.3102   -0.0000    0.0000   11.7286    0.0000
       6      0.0000    0.0000   -0.0000   -5.3102    0.0000   17.4109

  Elastic Compliance Matrix: (Units=1/GPa)

[...]

 Mechanical properties :

  Convention :                    Reuss         Voigt         Hill
  Bulk  Modulus (GPa)     =      34.15531      44.34653      39.25092
  Shear Modulus (GPa)     =      10.89968      13.69068      12.29518
  Velocity S-wave (km/s)  =       4.22305       4.73295       4.48525
  Velocity P-wave (km/s)  =       8.92547      10.12067       9.54180
  Compressibility (1/GPa) =    0.02927802
  Stress axis :                     x             y             z
  Youngs Moduli (GPa)     =      27.63506      27.63506      28.97526
  Poissons Ratio (x)      =                    -0.07924       0.60371
  Poissons Ratio (y)      =      -0.07924                     0.60371
  Poissons Ratio (z)      =       0.57578       0.57578

  Piezoelectric Strain Matrix: (Units=C/m**2)

  Indices      1         2         3         4         5         6
       x    -0.00000  -0.00000  -0.00000  -0.00000  -0.00000  -0.00000
       y    -0.00000  -0.00000  -0.00000  -0.00000  -0.00000  -0.00000
       z    -0.00000  -0.00000  -0.00000  -0.00000  -0.00000  -0.00000

  Piezoelectric Stress Matrix: (Units=10**-11 C/N)

[...]

  Static dielectric constant tensor :

              x         y         z
       x     1.00000   0.00000   0.00000
       y     0.00000   1.00000   0.00000
       z     0.00000   0.00000   1.00000

  Static refractive indices :

    1 =    1.00000      2 =    1.00000      3 =    1.00000

  Time to end of properties =    1959.5945 seconds

[...]

!! WARNING : No variables to optimise - single point performed

[...]

  Time to end of properties =    1960.2145 seconds

[...]

  Number of variables =     18

  Maximum number of calculations  =          1000
  Maximum Hessian update interval =            10
  Maximum step size               =   1.000000000
  Maximum parameter tolerance     =   0.000010000
  Maximum function  tolerance     =   0.000010000
  Maximum gradient  tolerance     =   0.001000000
  Maximum gradient  component     =   0.010000000

  Symmetry not applied to optimisation

  Cell parameters to be optimised using strains

  Newton-Raphson optimiser to be used

  BFGS hessian update to be used

[...]

  Start of bulk optimisation :

[...]

  **** Optimisation achieved ****

  Final energy =     -18.37651696 eV
  Final Gnorm  =       0.00044745

[...]

  Final fractional coordinates of atoms :

   No.  Atomic        x           y          z          Radius
        Label       (Frac)      (Frac)     (Frac)       (Angs)
     1  Sb    c     0.396797    0.396797    0.396797    0.000000
     2  Sb    c     0.592680    0.592680    0.592680    0.000000
     3  Te1   c     0.994738    0.994738    0.994738    0.000000
     4  Te2   c     0.783445    0.783445    0.783445    0.000000
     5  Te2   c     0.206031    0.206031    0.206031    0.000000

  Final Cartesian lattice vectors (Angstroms) :

[...]

  Final cell parameters and derivatives :

       a            9.474697 Angstrom     dE/de1(xx)     0.000015 eV/strain
       b            9.474697 Angstrom     dE/de2(yy)     0.002359 eV/strain
       c            9.474697 Angstrom     dE/de3(zz)     0.002427 eV/strain
       alpha       27.554474 Degrees      dE/de4(yz)    -0.000062 eV/strain
       beta        27.554474 Degrees      dE/de5(xz)    -0.000300 eV/strain
       gamma       27.554474 Degrees      dE/de6(xy)    -0.000505 eV/strain

  Primitive cell volume =           160.658819 Angs**3

  Density of cell =      6.473421 g/cm**3

  Non-primitive cell volume =           160.658819 Angs**3

  Final internal derivatives :

   No.  Atomic          x             y             z           Radius
        Label          (eV)          (eV)          (eV)        (eV/Angs)
      1 Sb    c       0.000000      0.000000      0.000000      0.000000
      2 Sb    c      -0.003721     -0.003721     -0.003721      0.000000
      3 Te1   c      -0.000000     -0.000000     -0.000000      0.000000
      4 Te2   c       0.001386      0.001386      0.001386      0.000000
      5 Te2   c      -0.001386     -0.001386     -0.001386      0.000000
  Maximum abs         0.003721      0.003721      0.003721      0.000000

[...]

  Time to end of optimisation =    1960.4785 seconds

*  Output for configuration 219                                                *

[...]

  Number of variables =     48

  Maximum number of calculations  =          1000
  Maximum Hessian update interval =            10
  Maximum step size               =   1.000000000
  Maximum parameter tolerance     =   0.000010000
  Maximum function  tolerance     =   0.000010000
  Maximum gradient  tolerance     =   0.001000000
  Maximum gradient  component     =   0.010000000

  Symmetry not applied to optimisation

  Cell parameters to be optimised using strains

  Newton-Raphson optimiser to be used

  BFGS hessian update to be used

  Dumpfile to be written after every cycle

  Start of bulk optimisation :

  ** Hessian calculated **

  **** Optimisation achieved ****

  Final energy =     -26.00170143 eV
  Final Gnorm  =       0.00040670

  Components of energy :

  Interatomic potentials     =         -11.43777575 eV
  Monopole - monopole (real) =           0.00000000 eV
  Monopole - monopole (recip)=           0.00000000 eV
  Monopole - monopole (total)=           0.00000000 eV
  Energy shift               =         -14.56392568 eV
  Total lattice energy       =         -26.00170143 eV
  Total lattice energy       =           -2508.7667 kJ/(mole unit cells)

  Final fractional coordinates of atoms :

   No.  Atomic        x           y          z          Radius
        Label       (Frac)      (Frac)     (Frac)       (Angs)
     1  Sb    c     0.666667    0.333333    0.063305    0.000000
     2  Sb    c     0.666667    0.333333    0.259235    0.000000
     3  Sb    c     1.000000    0.000000    0.396639    0.000000
     4  Sb    c     1.000000    0.000000    0.592569    0.000000
     5  Sb    c     0.333333    0.666667    0.729972    0.000000
     6  Sb    c     0.333333    0.666667    0.925902    0.000000
     7  Te1   c     1.000000    0.000000    0.994604    0.000000
     8  Te2   c     0.333333    0.666667    0.116631    0.000000
     9  Te2   c     1.000000    0.000000    0.205910    0.000000
    10  Te1   c     0.333333    0.666667    0.327937    0.000000
    11  Te2   c     0.666667    0.333333    0.449964    0.000000
    12  Te2   c     0.333333    0.666667    0.539243    0.000000
    13  Te1   c     0.666667    0.333333    0.661270    0.000000
    14  Te2   c     0.000000    1.000000    0.783297    0.000000
    15  Te2   c     0.666667    0.333333    0.872577    0.000000

  Final Cartesian lattice vectors (Angstroms) :

        4.512200    0.000000   -0.000000
       -2.256100    3.907680    0.000000
       -0.000000    0.000000   27.341307

  Final cell parameters and derivatives :

       a            4.512200 Angstrom     dE/de1(xx)     0.006448 eV/strain
       b            4.512200 Angstrom     dE/de2(yy)     0.006448 eV/strain
       c           27.341307 Angstrom     dE/de3(zz)     0.005797 eV/strain
       alpha       90.000000 Degrees      dE/de4(yz)     0.000000 eV/strain
       beta        90.000000 Degrees      dE/de5(xz)    -0.000000 eV/strain
       gamma      120.000000 Degrees      dE/de6(xy)    -0.000000 eV/strain

  Primitive cell volume =           482.088371 Angs**3

  Density of cell =      6.471918 g/cm**3

  Non-primitive cell volume =           482.088371 Angs**3

  Final internal derivatives :

   No.  Atomic          x             y             z           Radius
        Label          (eV)          (eV)          (eV)        (eV/Angs)
      1 Sb    c       0.000000      0.000000      0.000000      0.000000
      2 Sb    c       0.000000     -0.000000     -0.007055      0.000000
      3 Sb    c      -0.000000      0.000000      0.007055      0.000000
      4 Sb    c       0.000000     -0.000000     -0.007055      0.000000
      5 Sb    c      -0.000000      0.000000      0.007055      0.000000
      6 Sb    c       0.000000     -0.000000     -0.007055      0.000000
      7 Te1   c       0.000000     -0.000000      0.000000      0.000000
      8 Te2   c       0.000000     -0.000000      0.001606      0.000000
      9 Te2   c      -0.000000      0.000000     -0.001606      0.000000
     10 Te1   c      -0.000000      0.000000     -0.000000      0.000000
     11 Te2   c       0.000000     -0.000000      0.001606      0.000000
     12 Te2   c      -0.000000      0.000000     -0.001606      0.000000
     13 Te1   c       0.000000     -0.000000     -0.000000      0.000000
     14 Te2   c       0.000000     -0.000000      0.001606      0.000000
     15 Te2   c      -0.000000      0.000000     -0.001606      0.000000
  Maximum abs         0.000000      0.000000      0.007055      0.000000

  Elastic Constant Matrix: (Units=GPa)

[...]

  Elastic Compliance Matrix: (Units=1/GPa)

  Indices      1         2         3         4         5         6
       1    0.044594 -0.005732 -0.045903 -0.034252  0.000000 -0.000000
       2   -0.005732  0.044594 -0.045903  0.034252 -0.000000  0.000000
       3   -0.045903 -0.045903  0.177313  0.000000 -0.000000 -0.000000
       4   -0.034252  0.034252  0.000000  0.142761 -0.000000  0.000000
       5    0.000000 -0.000000 -0.000000 -0.000000  0.142761 -0.068505
       6   -0.000000  0.000000 -0.000000  0.000000 -0.068505  0.100652

 Mechanical properties :

  Convention :                    Reuss         Voigt         Hill
  Bulk  Modulus (GPa)     =      14.00031      23.95593      18.97812
  Shear Modulus (GPa)     =       5.73685      10.95171       8.34428
  Velocity S-wave (km/s)  =       2.97728       4.11362       3.59069
  Velocity P-wave (km/s)  =       5.78371       7.71866       6.82016
  Compressibility (1/GPa) =    0.07142697
  Stress axis :                     x             y             z
  Youngs Moduli (GPa)     =      22.42444      22.42444       5.63974
  Poissons Ratio (x)      =                     0.12854       0.25888
  Poissons Ratio (y)      =       0.12854                     0.25888
  Poissons Ratio (z)      =       1.02934       1.02934

  Piezoelectric Strain Matrix: (Units=C/m**2)

[...]

  Piezoelectric Stress Matrix: (Units=10**-11 C/N)

  Indices      1         2         3         4         5         6
       x     0.00000   0.00000   0.00000   0.00000   0.00000   0.00000
       y     0.00000   0.00000   0.00000   0.00000   0.00000   0.00000
       z     0.00000   0.00000   0.00000   0.00000   0.00000   0.00000

  Static dielectric constant tensor :

              x         y         z
       x     1.00000   0.00000   0.00000
       y     0.00000   1.00000   0.00000
       z     0.00000   0.00000   1.00000

  Static refractive indices :

    1 =    1.00000      2 =    1.00000      3 =    1.00000

  Time to end of optimisation =    1960.8425 seconds

  Timing analysis for GULP :

  Task / Subroutine                                          Time (Seconds)
  Calculation of real space energy and derivatives             1886.5820
  Sum of squares for fitting                                     49.5951
  Global summation overhead                                       1.3161

  Dump file written as sb2te3_12.res

  **** GULP has completed with 217 warnings - beware! ****

  Job Finished at 15:33.59 22nd July       2010