  Job Started  at 12:04.01 24th June       2010

  Number of CPUs =     1

  Total number of configurations input = 133

*  Input for Configuration =   1                                               *

  Formula = Sb2Te3

  Number of irreducible atoms/shells =       5

  Total number atoms/shells =       5

  Dimensionality = 3               :  Bulk

  Cartesian lattice vectors (Angstroms) :

       -2.504286    0.000000   10.443767
        1.252143   -2.168775   10.443767
        1.252143    2.168775   10.443767

  Cell parameters (Angstroms/Degrees):

  a =      10.7398    alpha =  23.3006
  b =      10.7398    beta  =  23.3006
  c =      10.7398    gamma =  23.3006

  Initial cell volume =         170.167643 Angs**3

  Temperature of configuration =  0.000     K

  Pressure of configuration =         0.000 GPa

  Fractional coordinates of asymmetric unit :

   No.  Atomic       x           y          z         Charge      Occupancy
        Label      (Frac)      (Frac)     (Frac)        (e)         (Frac)
      1 Sb    c    0.369021    0.369021    0.369021      0.6200    1.000000
      2 Sb    c    0.603203    0.603203    0.603203      0.6200    1.000000
      3 Te1   c    0.000000    0.000000    0.000000     -0.5000    1.000000
      4 Te2   c    0.784571    0.784571    0.784571     -0.3700    1.000000
      5 Te2   c    0.215429    0.215429    0.215429     -0.3700    1.000000

[...]

   No.  Atomic       x           y          z         Charge      Occupancy
        Label      (Frac)      (Frac)     (Frac)        (e)         (Frac)
      1 Sb    c    0.396797    0.396797    0.396797      0.6200    1.000000
      2 Sb    c    0.603203    0.603203    0.603203      0.6200    1.000000
      3 Te1   c    0.000000    0.000000    0.000000     -0.5000    1.000000
      4 Te2   c    0.784571    0.784571    0.784571     -0.3700    1.000000
      5 Te2   c    0.215429    0.215429    0.215429     -0.3700    1.000000

[...]

   No.  Atomic       x           y          z         Charge      Occupancy
        Label      (Frac)      (Frac)     (Frac)        (e)         (Frac)
      1 Sb    c    0.396797    0.396797    0.396797      0.6200    1.000000
      2 Sb    c    0.603203 *  0.603203 *  0.603203 *    0.6200    1.000000
      3 Te1   c    0.000000 *  0.000000 *  0.000000 *   -0.5000    1.000000
      4 Te2   c    0.784571 *  0.784571 *  0.784571 *   -0.3700    1.000000
      5 Te2   c    0.215429 *  0.215429 *  0.215429 *   -0.3700    1.000000

*  Input for Configuration = 133                                               *

  Formula = Sb6Te9

  Number of irreducible atoms/shells =      15

  Total number atoms/shells =      15

  Dimensionality = 3               :  Bulk

  Cartesian lattice vectors (Angstroms) :

[...]

  Cell parameters (Angstroms/Degrees):

  a =       4.3300    alpha =  90.0000
  b =       4.3300    beta  =  90.0000
  c =      31.4329    gamma = 120.0000

  Initial cell volume =         510.376742 Angs**3

  Temperature of configuration =  0.000     K

  Pressure of configuration =         0.000 GPa

  Fractional coordinates of asymmetric unit :

   No.  Atomic       x           y          z         Charge      Occupancy
        Label      (Frac)      (Frac)     (Frac)        (e)         (Frac)
      1 Sb    c    0.666667    0.333333    0.063305      0.6200    1.000000
      2 Sb    c    0.666667 *  0.333333 *  0.270028 *    0.6200    1.000000
      3 Sb    c    0.000000 *  0.000000 *  0.396639 *    0.6200    1.000000
      4 Sb    c    0.000000 *  0.000000 *  0.603361 *    0.6200    1.000000
      5 Sb    c    0.333333 *  0.666667 *  0.729972 *    0.6200    1.000000
      6 Sb    c    0.333333 *  0.666667 *  0.936695 *    0.6200    1.000000
      7 Te1   c    0.000000 *  0.000000 *  0.000000 *   -0.5000    1.000000
      8 Te2   c    0.333333 *  0.666667 *  0.117591 *   -0.3700    1.000000
      9 Te2   c    0.000000 *  0.000000 *  0.215743 *   -0.3700    1.000000
     10 Te1   c    0.333333 *  0.666667 *  0.333333 *   -0.5000    1.000000
     11 Te2   c    0.666667 *  0.333333 *  0.450924 *   -0.3700    1.000000
     12 Te2   c    0.333333 *  0.666667 *  0.549076 *   -0.3700    1.000000
     13 Te1   c    0.666667 *  0.333333 *  0.666667 *   -0.5000    1.000000
     14 Te2   c    0.000000 *  0.000000 *  0.784257 *   -0.3700    1.000000
     15 Te2   c    0.666667 *  0.333333 *  0.882409 *   -0.3700    1.000000

*  General input information                                                   *

  Species output for all configurations :

  Species    Type    Atomic    Atomic    Charge       Radii (Angs)     Library
                     Number     Mass       (e)     Cova   Ionic  VDW   Symbol
    Sb       Core       51     121.75     0.6200   1.460  0.000  2.170
    Te1      Core       52     127.60    -0.5000   1.470  0.000  2.200
    Te2      Core       52     127.60    -0.3700   1.470  0.000  2.200

  Lattice summation method               =    Ewald
  Accuracy factor for lattice sums       =    8.000

  Time limit = Infinity

  Maximum range for interatomic potentials =         8.000000 Angstroms

  Taper potentials to zero over   8.0000 Angstroms using Voter m =  20.0000

  General interatomic potentials :

Atom  Types   Potential         A         B         C         D     Cutoffs(Ang)
  1     2                                                            Min    Max
Sb   c Te2  c Morse         0.145      3.88     3.05     0.00       0.000 12.000
Sb   c Te1  c Morse         0.500E-01 0.949     3.23     0.00       0.000 12.000
Sb   c Sb   c Morse         0.491E-01  1.21     4.25     0.00       0.000 12.000
Te1  c Te1  c Morse         0.596E-01  1.06     4.40     0.00       0.000 12.000
Te1  c Te2  c Morse         0.883E-01  1.42     4.74     0.00       0.000 12.000
Te2  c Te2  c Morse         0.889E-01  1.26     3.90     0.00       0.000 12.000

  Energy shifts for configurations :

      Configuration           Energy (eV)        Scale Factor
             1               -10.3000                 1.000
             2               -10.3000                 1.000
             3               -10.3000                 1.000
             4               -10.3000                 1.000
             5               -10.3000                 1.000
             6               -10.3000                 1.000
             7               -10.3000                 1.000
             8               -10.3000                 1.000
             9               -10.3000                 1.000
            10               -10.3000                 1.000
            11               -10.3000                 1.000
            12               -10.3000                 1.000
            13               -10.3000                 1.000
            14               -10.3000                 1.000
            15               -10.3000                 1.000
            16               -10.3000                 1.000
            17               -10.3000                 1.000
            18               -10.3000                 1.000
            19               -10.3000                 1.000
            20               -10.3000                 1.000
            21               -10.3000                 1.000
            22               -10.3000                 1.000
            23               -10.3000                 1.000
            24               -10.3000                 1.000
            25               -10.3000                 1.000
            26               -10.3000                 1.000
            27               -10.3000                 1.000
            28               -10.3000                 1.000
            29               -10.3000                 1.000
            30               -10.3000                 1.000
            31               -10.3000                 1.000
            32               -10.3000                 1.000
            33               -10.3000                 1.000
            34               -10.3000                 1.000
            35               -10.3000                 1.000
            36               -10.3000                 1.000
            37               -10.3000                 1.000
            38               -10.3000                 1.000
            39               -10.3000                 1.000
            40               -10.3000                 1.000
            41               -10.3000                 1.000
            42               -10.3000                 1.000
            43               -10.3000                 1.000
            44               -10.3000                 1.000
            45               -10.3000                 1.000
            46               -10.3000                 1.000
            47               -10.3000                 1.000
            48               -10.3000                 1.000
            49               -10.3000                 1.000
            50               -10.3000                 1.000
            51               -10.3000                 1.000
            52               -10.3000                 1.000
            53               -10.3000                 1.000
            54               -10.3000                 1.000
            55               -10.3000                 1.000
            56               -10.3000                 1.000
            57               -10.3000                 1.000
            58               -10.3000                 1.000
            59               -10.3000                 1.000
            60               -10.3000                 1.000
[...]
           119               -10.3000                 1.000
           120               -10.3000                 1.000
           121               -10.3000                 1.000
           122               -10.3000                 1.000
           123               -10.3000                 1.000
           124               -10.3000                 1.000
           125               -10.3000                 1.000
           126               -10.3000                 1.000
           127               -10.3000                 1.000
           128               -10.3000                 1.000
           129               -10.3000                 1.000
           130               -10.3000                 1.000
           131               -10.3000                 1.000
           132               -10.3000                 1.000
           133               -10.3000                 1.000

  Number of variables   =   20
  Number of observables =  197

   Observable no.  Type           Observable    Weight       Reference  Confign
          1        Energy          -16.066600        0.1000                1
          2        Energy          -16.584500        0.1000                2
          3        Energy          -17.060200        0.1000                3
          4        Energy          -17.480900        0.1000                4
          5        Energy          -17.831400        0.2000                5
          6        Energy          -18.095000        0.5000                6
          7        Energy          -18.258200        0.5000                7
[...]
           133               -14.2780                 1.000

  Total time to end of fitting =     914.6412 seconds

*  Output for configuration   1                                                *

!! WARNING : No variables to optimise - single point performed

  Components of energy :

  Interatomic potentials     =          -2.42316410 eV
  Monopole - monopole (real) =          -0.37024726 eV
  Monopole - monopole (recip)=          -1.14732161 eV
  Monopole - monopole (total)=          -1.51756887 eV
  Energy shift               =         -14.27795796 eV
  Total lattice energy       =         -18.21869092 eV
  Total lattice energy       =           -1757.8252 kJ/(mole unit cells)

  Born effective charge tensors :

  Atom             x           y             z
   1 Sb    x       0.4834      0.0000      0.0000
           y       0.0000      0.4834      0.0000
           z       0.0000      0.0000      0.4834
   2 Sb    x       0.4834      0.0000      0.0000
           y       0.0000      0.4834      0.0000
           z       0.0000      0.0000      0.4834
   3 Te1   x      -0.1359      0.0000      0.0000
           y       0.0000     -0.1359      0.0000
           z       0.0000      0.0000     -0.1359
   4 Te2   x      -0.4154      0.0000      0.0000
           y       0.0000     -0.4154      0.0000
           z       0.0000      0.0000     -0.4154
   5 Te2   x      -0.4154      0.0000      0.0000
           y       0.0000     -0.4154      0.0000
           z       0.0000      0.0000     -0.4154

  Elastic Constant Matrix: (Units=GPa)

  Indices      1         2         3         4         5         6
       1    -11.6244   18.7031    0.3957   -0.0000   -4.9121    0.0000
       2     18.7031  -11.6244    0.3957   -0.0000    4.9121   -0.0000
       3      0.3957    0.3957   -1.8768   -0.0000   -0.0000   -0.0000
       4     -0.0000   -0.0000   -0.0000    0.4311   -0.0000    4.9121
       5     -4.9121    4.9121   -0.0000   -0.0000    0.4311    0.0000
       6      0.0000   -0.0000   -0.0000    4.9121    0.0000  -15.1638

  Elastic Compliance Matrix: (Units=1/GPa)

[...]

 Mechanical properties :

  Convention :                    Reuss         Voigt         Hill
  Bulk  Modulus (GPa)     =      -7.80431       1.54040      -3.13195
  Shear Modulus (GPa)     =      17.78198      -5.83500       5.97349
  Velocity S-wave (km/s)  =       5.39398      -3.08987       3.12632
  Velocity P-wave (km/s)  =       5.10136       3.19520       2.81199
  Compressibility (1/GPa) =   -0.12813441
  Stress axis :                     x             y             z
  Youngs Moduli (GPa)     =      15.26884      15.26884      -1.92100
  Poissons Ratio (x)      =                    -1.10732       0.05590
  Poissons Ratio (y)      =      -1.10732                     0.05590
  Poissons Ratio (z)      =      -0.44432      -0.44432

  Piezoelectric Strain Matrix: (Units=C/m**2)

  Indices      1         2         3         4         5         6
       x    -5.99707   5.99707   0.00000   0.00000  -1.10053   0.00000
       y    -0.00000   0.00000   0.00000  -1.10053   0.00000   5.99707
       z    -0.46431  -0.46431  -0.18593  -0.00000  -0.00000  -0.00000

  Piezoelectric Stress Matrix: (Units=10**-11 C/N)

[...]

  Static dielectric constant tensor :

              x         y         z
       x     2.53275   0.00000  -0.00000
       y     0.00000   2.53275  -0.00000
       z    -0.00000  -0.00000   0.63315

  Static refractive indices :

    1 =    0.79571      2 =    1.59146      3 =    1.59146

  Time to end of properties =     914.6452 seconds

[...]

!! WARNING : No variables to optimise - single point performed

[...]

  Time to end of properties =     914.9892 seconds

[...]

  Number of variables =     18

  Maximum number of calculations  =          1000
  Maximum Hessian update interval =            10
  Maximum step size               =   1.000000000
  Maximum parameter tolerance     =   0.000010000
  Maximum function  tolerance     =   0.000010000
  Maximum gradient  tolerance     =   0.001000000
  Maximum gradient  component     =   0.010000000

  Symmetry not applied to optimisation

  Cell parameters to be optimised using strains

  Newton-Raphson optimiser to be used

  BFGS hessian update to be used

[...]

  Start of bulk optimisation :

[...]

  **** Optimisation achieved ****

  Final energy =     -19.61503791 eV
  Final Gnorm  =       0.00046969

[...]

  Final fractional coordinates of atoms :

   No.  Atomic        x           y          z          Radius
        Label       (Frac)      (Frac)     (Frac)       (Angs)
     1  Sb    c     0.396797    0.396797    0.396797    0.000000
     2  Sb    c     0.528294    0.528294    0.528294    0.000000
     3  Te1   c     0.962539    0.962539    0.962539    0.000000
     4  Te2   c     0.775796    0.775796    0.775796    0.000000
     5  Te2   c     0.149294    0.149294    0.149294    0.000000

  Final Cartesian lattice vectors (Angstroms) :

[...]

  Final cell parameters and derivatives :

       a            8.467642 Angstrom     dE/de1(xx)    -0.002842 eV/strain
       b            8.467642 Angstrom     dE/de2(yy)    -0.002842 eV/strain
       c            8.467642 Angstrom     dE/de3(zz)    -0.000089 eV/strain
       alpha       33.808550 Degrees      dE/de4(yz)     0.000000 eV/strain
       beta        33.808550 Degrees      dE/de5(xz)     0.000000 eV/strain
       gamma       33.808550 Degrees      dE/de6(xy)     0.000000 eV/strain

  Primitive cell volume =           167.500199 Angs**3

  Density of cell =      6.209020 g/cm**3

  Non-primitive cell volume =           167.500199 Angs**3

  Final internal derivatives :

   No.  Atomic          x             y             z           Radius
        Label          (eV)          (eV)          (eV)        (eV/Angs)
      1 Sb    c       0.000000      0.000000      0.000000      0.000000
      2 Sb    c       0.000050      0.000050      0.000050      0.000000
      3 Te1   c      -0.003217     -0.003217     -0.003217      0.000000
      4 Te2   c       0.000827      0.000827      0.000827      0.000000
      5 Te2   c       0.002721      0.002721      0.002721      0.000000
  Maximum abs         0.003217      0.003217      0.003217      0.000000

[...]

  Atom             x           y             z
   1 Sb    x       0.4834      0.0000      0.0000
           y       0.0000      0.4834      0.0000
           z       0.0000      0.0000      0.4834
   2 Sb    x       0.4834      0.0000      0.0000
           y       0.0000      0.4834      0.0000
           z       0.0000      0.0000      0.4834
   3 Te1   x      -0.1359      0.0000      0.0000
           y       0.0000     -0.1359      0.0000
           z       0.0000      0.0000     -0.1359
   4 Te2   x      -0.4154      0.0000      0.0000
           y       0.0000     -0.4154      0.0000
           z       0.0000      0.0000     -0.4154
   5 Te2   x      -0.4154      0.0000      0.0000
           y       0.0000     -0.4154      0.0000
           z       0.0000      0.0000     -0.4154

[...]

  Time to end of optimisation =     915.4292 seconds

*  Output for configuration 133                                                *

[...]

  Number of variables =     48

  Maximum number of calculations  =          1000
  Maximum Hessian update interval =            10
  Maximum step size               =   1.000000000
  Maximum parameter tolerance     =   0.000010000
  Maximum function  tolerance     =   0.000010000
  Maximum gradient  tolerance     =   0.001000000
  Maximum gradient  component     =   0.010000000

  Symmetry not applied to optimisation

  Cell parameters to be optimised using strains

  Newton-Raphson optimiser to be used

  BFGS hessian update to be used

  Dumpfile to be written after every cycle

  Start of bulk optimisation :

  ** Hessian calculated **
  ** Hessian calculated **
  ** Hessian calculated **
  ** Hessian calculated **
  ** Hessian calculated **
  ** Hessian calculated **

  **** Optimisation achieved ****

  Final energy =     -30.28919818 eV
  Final Gnorm  =       0.00007685

  Components of energy :

  Interatomic potentials     =          -7.28439571 eV
  Monopole - monopole (real) =          -3.15145830 eV
  Monopole - monopole (recip)=          -5.57538622 eV
  Monopole - monopole (total)=          -8.72684452 eV
  Energy shift               =         -14.27795796 eV
  Total lattice energy       =         -30.28919818 eV
  Total lattice energy       =           -2922.4446 kJ/(mole unit cells)

  Final fractional coordinates of atoms :

   No.  Atomic        x           y          z          Radius
        Label       (Frac)      (Frac)     (Frac)       (Angs)
     1  Sb    c     0.666667    0.333333    0.063305    0.000000
     2  Sb    c     0.666679    0.333335    0.194794    0.000000
     3  Sb    c     0.999996    0.000012    0.396637    0.000000
     4  Sb    c     0.999998    0.000010    0.528127    0.000000
     5  Sb    c     0.333338    0.666673    0.729968    0.000000
     6  Sb    c     0.333336    0.666674    0.861458    0.000000
     7  Te1   c     0.000006    0.000006    0.962380    0.000000
     8  Te2   c     0.333340    0.666671    0.108964    0.000000
     9  Te2   c     0.000008    0.000005    0.149133    0.000000
    10  Te1   c     0.333331    0.666677    0.295715    0.000000
    11  Te2   c     0.666664    0.333345    0.442296    0.000000
    12  Te2   c     0.333331    0.666677    0.482467    0.000000
    13  Te1   c     0.666667    0.333342    0.629047    0.000000
    14  Te2   c     0.000005    0.000006    0.775628    0.000000
    15  Te2   c     0.666669    0.333341    0.815798    0.000000

  Final Cartesian lattice vectors (Angstroms) :

        4.924531    0.000007   -0.000014
       -2.462260    4.264771    0.000010
       -0.000103    0.000028   23.928120

  Final cell parameters and derivatives :

       a            4.924531 Angstrom     dE/de1(xx)     0.000552 eV/strain
       b            4.924530 Angstrom     dE/de2(yy)     0.000401 eV/strain
       c           23.928120 Angstrom     dE/de3(zz)    -0.000960 eV/strain
       alpha       89.999697 Degrees      dE/de4(yz)     0.000036 eV/strain
       beta        90.000412 Degrees      dE/de5(xz)     0.000159 eV/strain
       gamma      119.999852 Degrees      dE/de6(xy)     0.000307 eV/strain

  Primitive cell volume =           502.538707 Angs**3

  Density of cell =      6.208550 g/cm**3

  Non-primitive cell volume =           502.538707 Angs**3

  Final internal derivatives :

   No.  Atomic          x             y             z           Radius
        Label          (eV)          (eV)          (eV)        (eV/Angs)
      1 Sb    c       0.000000      0.000000      0.000000      0.000000
      2 Sb    c       0.000759     -0.000788     -0.000824      0.000000
      3 Sb    c      -0.000064      0.000068      0.000758      0.000000
      4 Sb    c      -0.000091      0.000073      0.000183      0.000000
      5 Sb    c       0.000051     -0.000028     -0.001205      0.000000
      6 Sb    c       0.000058     -0.000075      0.000878      0.000000
      7 Te1   c       0.000014     -0.000011     -0.001319      0.000000
      8 Te2   c       0.000481      0.000294      0.000098      0.000000
      9 Te2   c      -0.000674      0.000694      0.000862      0.000000
     10 Te1   c      -0.000051      0.000041      0.000102      0.000000
     11 Te2   c      -0.000066      0.000060     -0.001070      0.000000
     12 Te2   c       0.000200     -0.000184      0.000849      0.000000
     13 Te1   c      -0.000011      0.000010     -0.001075      0.000000
     14 Te2   c       0.000005     -0.000021      0.000560      0.000000
     15 Te2   c      -0.000110      0.000119     -0.000397      0.000000
  Maximum abs         0.000759      0.000788      0.001319      0.000000

  Born effective charge tensors :

  Atom             x           y             z
   1 Sb    x       0.4834      0.0000      0.0000
           y       0.0000      0.4834      0.0000
           z       0.0000      0.0000      0.4834
   2 Sb    x       0.4834      0.0000      0.0000
           y       0.0000      0.4834      0.0000
           z       0.0000      0.0000      0.4834
   3 Sb    x       0.4834      0.0000      0.0000
           y       0.0000      0.4834      0.0000
           z       0.0000      0.0000      0.4834
   4 Sb    x       0.4834      0.0000      0.0000
           y       0.0000      0.4834      0.0000
           z       0.0000      0.0000      0.4834
   5 Sb    x       0.4834      0.0000      0.0000
           y       0.0000      0.4834      0.0000
           z       0.0000      0.0000      0.4834
   6 Sb    x       0.4834      0.0000      0.0000
           y       0.0000      0.4834      0.0000
           z       0.0000      0.0000      0.4834
   7 Te1   x      -0.1359      0.0000      0.0000
           y       0.0000     -0.1359      0.0000
           z       0.0000      0.0000     -0.1359
   8 Te2   x      -0.4154      0.0000      0.0000
           y       0.0000     -0.4154      0.0000
           z       0.0000      0.0000     -0.4154
   9 Te2   x      -0.4154      0.0000      0.0000
           y       0.0000     -0.4154      0.0000
           z       0.0000      0.0000     -0.4154
  10 Te1   x      -0.1359      0.0000      0.0000
           y       0.0000     -0.1359      0.0000
           z       0.0000      0.0000     -0.1359
  11 Te2   x      -0.4154      0.0000      0.0000
           y       0.0000     -0.4154      0.0000
           z       0.0000      0.0000     -0.4154
  12 Te2   x      -0.4154      0.0000      0.0000
           y       0.0000     -0.4154      0.0000
           z       0.0000      0.0000     -0.4154
  13 Te1   x      -0.1359      0.0000      0.0000
           y       0.0000     -0.1359      0.0000
           z       0.0000      0.0000     -0.1359
  14 Te2   x      -0.4154      0.0000      0.0000
           y       0.0000     -0.4154      0.0000
           z       0.0000      0.0000     -0.4154
  15 Te2   x      -0.4154      0.0000      0.0000
           y       0.0000     -0.4154      0.0000
           z       0.0000      0.0000     -0.4154

  Elastic Constant Matrix: (Units=GPa)

[...]

  Elastic Compliance Matrix: (Units=1/GPa)

  Indices      1         2         3         4         5         6
       1    0.001316  0.014574 -0.000316  0.000352  0.000001  0.000000
       2    0.014574  0.001316 -0.000316 -0.000353  0.000002 -0.000000
       3   -0.000316 -0.000316  0.027868  0.000001 -0.000002  0.000000
       4    0.000352 -0.000353  0.000001  0.190819  0.000009 -0.000001
       5    0.000001  0.000002 -0.000002  0.000009  0.190812  0.000705
       6    0.000000 -0.000000  0.000000 -0.000001  0.000705 -0.026516

 Mechanical properties :

  Convention :                    Reuss         Voigt         Hill
  Bulk  Modulus (GPa)     =      17.12816      18.29789      17.71303
  Shear Modulus (GPa)     =      13.25589      -8.59056       2.33266
  Velocity S-wave (km/s)  =       4.62072      -3.71977       1.93834
  Velocity P-wave (km/s)  =       7.48706       3.32012       5.79134
  Compressibility (1/GPa) =    0.05838338
  Stress axis :                     x             y             z
  Youngs Moduli (GPa)     =     760.06982     760.15407      35.88329
  Poissons Ratio (x)      =                   -11.07834       0.01134
  Poissons Ratio (y)      =     -11.07711                     0.01133
  Poissons Ratio (z)      =       0.24011       0.24011

  Piezoelectric Strain Matrix: (Units=C/m**2)

[...]

  Piezoelectric Stress Matrix: (Units=10**-11 C/N)

  Indices      1         2         3         4         5         6
       x     0.00001  -0.00003   0.00003  -0.00026   0.00026  -0.00006
       y     0.00006  -0.00011   0.00001   0.00000  -0.00026   0.00005
       z     0.00006   0.00022   0.00001   0.00049  -0.00010   0.00004

  Static dielectric constant tensor :

              x         y         z
       x     1.14168   0.00001   0.00001
       y     0.00001   1.14168   0.00000
       z     0.00001   0.00000   1.35015

  Static refractive indices :

    1 =    1.06849      2 =    1.06850      3 =    1.16196

  Time to end of optimisation =     917.7854 seconds

  Timing analysis for GULP :

  Task / Subroutine                                          Time (Seconds)
  Calculation of reciprocal space energy and derivatives         52.6392
  Calculation of real space energy and derivatives              838.4085
  Sum of squares for fitting                                     19.1052
  Global summation overhead                                       0.7720

  Dump file written as sb2te3.res

  **** GULP has completed with 131 warnings - beware! ****

  Job Finished at 12:19.31 24th June       2010