  Job Started  at 17:26.28  8th June       2010

  Number of CPUs =     1

  Total number of configurations input = 151

*  Input for Configuration =   1                                               *

  Formula = Sb2Te3

  Number of irreducible atoms/shells =       5

  Total number atoms/shells =       5

  Dimensionality = 3               :  Bulk

  Cartesian lattice vectors (Angstroms) :

       -2.504286    0.000000   10.443767
        1.252143   -2.168775   10.443767
        1.252143    2.168775   10.443767

  Cell parameters (Angstroms/Degrees):

  a =      10.7398    alpha =  23.3006
  b =      10.7398    beta  =  23.3006
  c =      10.7398    gamma =  23.3006

  Initial cell volume =         170.167643 Angs**3

  Temperature of configuration =  0.000     K

  Pressure of configuration =         0.000 GPa

  Fractional coordinates of asymmetric unit :

   No.  Atomic       x           y          z         Charge      Occupancy
        Label      (Frac)      (Frac)     (Frac)        (e)         (Frac)
      1 Sb    c    0.369021    0.369021    0.369021      0.6200    1.000000
      2 Sb    c    0.603203    0.603203    0.603203      0.6200    1.000000
      3 Te1   c    0.000000    0.000000    0.000000     -0.5000    1.000000
      4 Te2   c    0.784571    0.784571    0.784571     -0.3700    1.000000
      5 Te2   c    0.215429    0.215429    0.215429     -0.3700    1.000000

[...]

   No.  Atomic       x           y          z         Charge      Occupancy
        Label      (Frac)      (Frac)     (Frac)        (e)         (Frac)
      1 Sb    c    0.396797    0.396797    0.396797      0.6200    1.000000
      2 Sb    c    0.603203    0.603203    0.603203      0.6200    1.000000
      3 Te1   c    0.000000    0.000000    0.000000     -0.5000    1.000000
      4 Te2   c    0.784571    0.784571    0.784571     -0.3700    1.000000
      5 Te2   c    0.215429    0.215429    0.215429     -0.3700    1.000000

*  Input for Configuration = 151                                               *

  Formula = Sb2Te3

  Number of irreducible atoms/shells =       5

  Total number atoms/shells =       5

  Dimensionality = 3               :  Bulk

  Cartesian lattice vectors (Angstroms) :

[...]

  Cell parameters (Angstroms/Degrees):

  a =      10.7398    alpha =  23.3000
  b =      10.7398    beta  =  23.3000
  c =      10.7398    gamma =  23.3000

  Initial cell volume =         170.158355 Angs**3

  Temperature of configuration =  0.000     K

  Pressure of configuration =         0.000 GPa

  Fractional coordinates of asymmetric unit :

   No.  Atomic       x           y          z         Charge      Occupancy
        Label      (Frac)      (Frac)     (Frac)        (e)         (Frac)
      1 Sb    c    0.396797    0.396797    0.396797      0.6200    1.000000
      2 Sb    c    0.603203 *  0.603203 *  0.603203 *    0.6200    1.000000
      3 Te1   c    0.000000 *  0.000000 *  0.000000 *   -0.5000    1.000000
      4 Te2   c    0.784571 *  0.784571 *  0.784571 *   -0.3700    1.000000
      5 Te2   c    0.215429 *  0.215429 *  0.215429 *   -0.3700    1.000000

*  General input information                                                   *

  Species output for all configurations :

  Species    Type    Atomic    Atomic    Charge       Radii (Angs)     Library
                     Number     Mass       (e)     Cova   Ionic  VDW   Symbol
    Sb       Core       51     121.75     0.6200   1.460  0.000  2.170
    Te1      Core       52     127.60    -0.5000   1.470  0.000  2.200
    Te2      Core       52     127.60    -0.3700   1.470  0.000  2.200

  Lattice summation method               =    Ewald
  Accuracy factor for lattice sums       =    8.000

  Time limit = Infinity

  Maximum range for interatomic potentials =         8.000000 Angstroms

  Taper potentials to zero over   8.0000 Angstroms using Voter m =  20.0000

  General interatomic potentials :

Atom  Types   Potential         A         B         C         D     Cutoffs(Ang)
  1     2                                                            Min    Max
Sb   c Te2  c Morse         0.230      3.65     3.03     0.00       0.000 12.000
Sb   c Te1  c Morse         0.548      1.18     3.20     0.00       0.000 12.000
Sb   c Sb   c Morse         0.500E-01  1.00     4.34     0.00       0.000 12.000
Te1  c Te1  c Morse         0.730E-01  1.07     4.34     0.00       0.000 12.000
Te1  c Te2  c Morse         0.470E-01  1.07     4.47     0.00       0.000 12.000
Te2  c Te2  c Morse         0.740E-01  2.72     3.93     0.00       0.000 12.000

  Energy shifts for configurations :

      Configuration           Energy (eV)        Scale Factor
             1               -6.78000                 1.000
             2               -6.78000                 1.000
             3               -6.78000                 1.000
             4               -6.78000                 1.000
             5               -6.78000                 1.000
             6               -6.78000                 1.000
             7               -6.78000                 1.000
             8               -6.78000                 1.000
             9               -6.78000                 1.000
            10               -6.78000                 1.000
            11               -6.78000                 1.000
            12               -6.78000                 1.000
            13               -6.78000                 1.000
            14               -6.78000                 1.000
            15               -6.78000                 1.000
            16               -6.78000                 1.000
            17               -6.78000                 1.000
            18               -6.78000                 1.000
            19               -6.78000                 1.000
            20               -6.78000                 1.000
            21               -6.78000                 1.000
            22               -6.78000                 1.000
            23               -6.78000                 1.000
            24               -6.78000                 1.000
            25               -6.78000                 1.000
            26               -6.78000                 1.000
            27               -6.78000                 1.000
            28               -6.78000                 1.000
            29               -6.78000                 1.000
            30               -6.78000                 1.000
            31               -6.78000                 1.000
            32               -6.78000                 1.000
            33               -6.78000                 1.000
            34               -6.78000                 1.000
            35               -6.78000                 1.000
            36               -6.78000                 1.000
            37               -6.78000                 1.000
            38               -6.78000                 1.000
            39               -6.78000                 1.000
            40               -6.78000                 1.000
            41               -6.78000                 1.000
            42               -6.78000                 1.000
            43               -6.78000                 1.000
            44               -6.78000                 1.000
            45               -6.78000                 1.000
            46               -6.78000                 1.000
            47               -6.78000                 1.000
            48               -6.78000                 1.000
            49               -6.78000                 1.000
            50               -6.78000                 1.000
            51               -6.78000                 1.000
            52               -6.78000                 1.000
            53               -6.78000                 1.000
            54               -6.78000                 1.000
            55               -6.78000                 1.000
            56               -6.78000                 1.000
            57               -6.78000                 1.000
            58               -6.78000                 1.000
            59               -6.78000                 1.000
            60               -6.78000                 1.000
[...]
           137               -6.78000                 1.000
           138               -6.78000                 1.000
           139               -6.78000                 1.000
           140               -6.78000                 1.000
           141               -6.78000                 1.000
           142               -6.78000                 1.000
           143               -6.78000                 1.000
           144               -6.78000                 1.000
           145               -6.78000                 1.000
           146               -6.78000                 1.000
           147               -6.78000                 1.000
           148               -6.78000                 1.000
           149               -6.78000                 1.000
           150               -6.78000                 1.000
           151               -6.78000                 1.000

  Number of variables   =   19
  Number of observables =  174

   Observable no.  Type           Observable    Weight       Reference  Confign
          1        Energy          -16.066600        0.0000                1
          2        Energy          -16.584500        0.0000                2
          3        Energy          -17.060200        0.0000                3
          4        Energy          -17.480900        0.0000                4
          5        Energy          -17.831400        0.2000                5
          6        Energy          -18.095000        0.5000                6
          7        Energy          -18.258200        0.5000                7
          8        Energy          -18.313000        1.0000                8
          9        Energy          -18.257900        0.5000                9
         10        Energy          -18.096800        0.5000               10
         11        Energy          -17.838700        0.2000               11
         12        Energy          -17.496800        0.0000               12
         13        Energy          -17.088900        0.0000               13
         14        Energy          -16.635400        0.0000               14
         15        Energy          -16.162800        0.0000               15
         16        Energy          -14.700000        0.0000               16
         17        Energy          -15.230000        0.0000               17
         18        Energy          -15.880000        0.0000               18
         19        Energy          -16.600000        0.0000               19
         20        Energy          -17.270000        0.2000               20
         21        Energy          -17.830000        0.5000               21
         22        Energy          -18.190000        0.5000               22
         23        Energy          -18.310000        1.0000               23
         24        Energy          -18.190000        0.5000               24
[...]
        161        Derivative         0.00000     -0.02951      0.05621
        162        Derivative         0.00000     -0.04970      0.09467
        163        Derivative         0.00000      2.09890     -0.07454
        164        Derivative         0.00000      2.09890     -0.07454
        165        Derivative         0.00000      2.09890     -0.07454
        166        Derivative         0.00000      0.00001      0.00001
        167        Derivative         0.00000      0.00001      0.00001
        168        Derivative         0.00000      0.00001      0.00001
        169        Derivative         0.00000      5.64992     -0.02480
        170        Derivative         0.00000      5.64992     -0.02480
        171        Derivative         0.00000      5.64992     -0.02480
        172        Derivative         0.00000     -5.64992      0.02480
        173        Derivative         0.00000     -5.64992      0.02480
        174        Derivative         0.00000     -5.64992      0.02480

  Maximum range for interatomic potentials =         8.000000 Angstroms

  Taper potentials to zero over   8.0000 Angstroms using Voter m =  20.0000

  General interatomic potentials :

Atom  Types   Potential         A         B         C         D     Cutoffs(Ang)
  1     2                                                            Min    Max
Sb   c Te2  c Morse         0.232      3.21     3.07     0.00       0.000 12.000
Sb   c Te1  c Morse         0.407      1.36     3.26     0.00       0.000 12.000
Sb   c Sb   c Morse         0.720E-01 0.811     4.17     0.00       0.000 12.000
Te1  c Te1  c Morse         0.928E-01  1.03     4.13     0.00       0.000 12.000
Te1  c Te2  c Morse         0.487E-01  1.02     4.40     0.00       0.000 12.000
Te2  c Te2  c Morse         0.754E-01  2.79     3.84     0.00       0.000 12.000

  Energy shifts for configurations :

      Configuration           Energy (eV)        Scale Factor
             1               -7.94128                 1.000
             2               -7.94128                 1.000
             3               -7.94128                 1.000
             4               -7.94128                 1.000
             5               -7.94128                 1.000
             6               -7.94128                 1.000
             7               -7.94128                 1.000
             8               -7.94128                 1.000
             9               -7.94128                 1.000
            10               -7.94128                 1.000
            11               -7.94128                 1.000
            12               -7.94128                 1.000
            13               -7.94128                 1.000
            14               -7.94128                 1.000
            15               -7.94128                 1.000
            16               -7.94128                 1.000
            17               -7.94128                 1.000
            18               -7.94128                 1.000
            19               -7.94128                 1.000
            20               -7.94128                 1.000
            21               -7.94128                 1.000
            22               -7.94128                 1.000
            23               -7.94128                 1.000
            24               -7.94128                 1.000
            25               -7.94128                 1.000
            26               -7.94128                 1.000
            27               -7.94128                 1.000
            28               -7.94128                 1.000
            29               -7.94128                 1.000
            30               -7.94128                 1.000
            31               -7.94128                 1.000
            32               -7.94128                 1.000
            33               -7.94128                 1.000
            34               -7.94128                 1.000
            35               -7.94128                 1.000
            36               -7.94128                 1.000
            37               -7.94128                 1.000
            38               -7.94128                 1.000
            39               -7.94128                 1.000
            40               -7.94128                 1.000
            41               -7.94128                 1.000
            42               -7.94128                 1.000
            43               -7.94128                 1.000
            44               -7.94128                 1.000
            45               -7.94128                 1.000
            46               -7.94128                 1.000
            47               -7.94128                 1.000
            48               -7.94128                 1.000
            49               -7.94128                 1.000
            50               -7.94128                 1.000
            51               -7.94128                 1.000
            52               -7.94128                 1.000
            53               -7.94128                 1.000
            54               -7.94128                 1.000
            55               -7.94128                 1.000
            56               -7.94128                 1.000
            57               -7.94128                 1.000
            58               -7.94128                 1.000
            59               -7.94128                 1.000
            60               -7.94128                 1.000
[...]
           137               -7.94128                 1.000
           138               -7.94128                 1.000
           139               -7.94128                 1.000
           140               -7.94128                 1.000
           141               -7.94128                 1.000
           142               -7.94128                 1.000
           143               -7.94128                 1.000
           144               -7.94128                 1.000
           145               -7.94128                 1.000
           146               -7.94128                 1.000
           147               -7.94128                 1.000
           148               -7.94128                 1.000
           149               -7.94128                 1.000
           150               -7.94128                 1.000
           151               -7.94128                 1.000

  Total time to end of fitting =     947.9072 seconds

*  Output for configuration   1                                                *

!! WARNING : No variables to optimise - single point performed

  Components of energy :

  Interatomic potentials     =          -4.14785135 eV
  Monopole - monopole (real) =          -1.17953623 eV
  Monopole - monopole (recip)=          -3.08937235 eV
  Monopole - monopole (total)=          -4.26890857 eV
  Energy shift               =          -7.94127697 eV
  Total lattice energy       =         -16.35803690 eV
  Total lattice energy       =           -1578.3005 kJ/(mole unit cells)

  Born effective charge tensors :

  Atom             x           y             z
   1 Sb    x       0.6200      0.0000      0.0000
           y       0.0000      0.6200      0.0000
           z       0.0000      0.0000      0.6200
   2 Sb    x       0.6200      0.0000      0.0000
           y       0.0000      0.6200      0.0000
           z       0.0000      0.0000      0.6200
   3 Te1   x      -0.5000      0.0000      0.0000
           y       0.0000     -0.5000      0.0000
           z       0.0000      0.0000     -0.5000
   4 Te2   x      -0.3700      0.0000      0.0000
           y       0.0000     -0.3700      0.0000
           z       0.0000      0.0000     -0.3700
   5 Te2   x      -0.3700      0.0000      0.0000
           y       0.0000     -0.3700      0.0000
           z       0.0000      0.0000     -0.3700

  Elastic Constant Matrix: (Units=GPa)

  Indices      1         2         3         4         5         6
       1    193.3867   29.3784   92.8838   -0.0000  118.4638    0.0000
       2     29.3784  193.3867   92.8838    0.0000 -118.4638   -0.0000
       3     92.8838   92.8838   64.2851    0.0000   -0.0000   -0.0000
       4     -0.0000    0.0000    0.0000  154.0084   -0.0000 -118.4638
       5    118.4638 -118.4638   -0.0000   -0.0000  154.0084    0.0000
       6      0.0000   -0.0000   -0.0000 -118.4638    0.0000   82.0042

  Elastic Compliance Matrix: (Units=1/GPa)

[...]

 Mechanical properties :

  Convention :                    Reuss         Voigt         Hill
  Bulk  Modulus (GPa)     =     145.26407      97.92785     121.59596
  Shear Modulus (GPa)     =      -9.32215      93.73169      42.20477
  Velocity S-wave (km/s)  =      -3.90551      12.38404       8.30998
  Velocity P-wave (km/s)  =      14.74262      19.09755      17.05962
  Compressibility (1/GPa) =    0.00688401
  Stress axis :                     x             y             z
  Youngs Moduli (GPa)     =     -26.06174     -26.06174     -13.17231
  Poissons Ratio (x)      =                     0.42904       0.41696
  Poissons Ratio (y)      =       0.42904                     0.41696
  Poissons Ratio (z)      =       0.82496       0.82496

  Piezoelectric Strain Matrix: (Units=C/m**2)

  Indices      1         2         3         4         5         6
       x    18.65879 -18.65879  -0.00000  -0.00000  24.48599   0.00000
       y    -0.00000   0.00000   0.00000  24.48599  -0.00000 -18.65879
       z     7.98501   7.98501   5.68825   0.00000  -0.00000  -0.00000

  Piezoelectric Stress Matrix: (Units=10**-11 C/N)

[...]

  Static dielectric constant tensor :

              x         y         z
       x    -2.06302   0.00000   0.00000
       y     0.00000  -2.06302  -0.00000
       z     0.00000  -0.00000   0.47027

  Static refractive indices :

    1 =   -1.43632      2 =   -1.43632      3 =    0.68577

  Time to end of properties =     947.9112 seconds

[...]

!! WARNING : No variables to optimise - single point performed

[...]

  Time to end of properties =     948.3073 seconds

*  Output for configuration 151                                                *

[...]

  Number of variables =     18

  Maximum number of calculations  =          1000
  Maximum Hessian update interval =            10
  Maximum step size               =   1.000000000
  Maximum parameter tolerance     =   0.000010000
  Maximum function  tolerance     =   0.000010000
  Maximum gradient  tolerance     =   0.001000000
  Maximum gradient  component     =   0.010000000

  Symmetry not applied to optimisation

  Cell parameters to be optimised using strains

  Newton-Raphson optimiser to be used

  BFGS hessian update to be used

  Dumpfile to be written after every cycle

  Start of bulk optimisation :

  ** Hessian calculated **

  **** Optimisation achieved ****

  Final energy =     -18.37360383 eV
  Final Gnorm  =       0.00044994

  Components of energy :

  Interatomic potentials     =          -5.86506932 eV
  Monopole - monopole (real) =          -1.09702409 eV
  Monopole - monopole (recip)=          -3.47023345 eV
  Monopole - monopole (total)=          -4.56725754 eV
  Energy shift               =          -7.94127697 eV
  Total lattice energy       =         -18.37360383 eV
  Total lattice energy       =           -1772.7719 kJ/(mole unit cells)

  Final fractional coordinates of atoms :

   No.  Atomic        x           y          z          Radius
        Label       (Frac)      (Frac)     (Frac)       (Angs)
     1  Sb    c     0.396797    0.396797    0.396797    0.000000
     2  Sb    c     0.604691    0.604691    0.604691    0.000000
     3  Te1   c     0.000744    0.000744    0.000744    0.000000
     4  Te2   c     0.787353    0.787353    0.787353    0.000000
     5  Te2   c     0.214134    0.214134    0.214134    0.000000

  Final Cartesian lattice vectors (Angstroms) :

       10.865755    0.124613    0.073985
       10.028903    4.183450    0.073985
       10.028903    2.067760    3.637457

  Final cell parameters and derivatives :

       a           10.866721 Angstrom     dE/de1(xx)     0.001175 eV/strain
       b           10.866721 Angstrom     dE/de2(yy)     0.000863 eV/strain
       c           10.866721 Angstrom     dE/de3(zz)     0.000854 eV/strain
       alpha       21.985360 Degrees      dE/de4(yz)     0.000008 eV/strain
       beta        21.985360 Degrees      dE/de5(xz)     0.000040 eV/strain
       gamma       21.985360 Degrees      dE/de6(xy)     0.000067 eV/strain

  Primitive cell volume =           157.660062 Angs**3

  Density of cell =      6.596548 g/cm**3

  Non-primitive cell volume =           157.660062 Angs**3

  Final internal derivatives :

   No.  Atomic          x             y             z           Radius
        Label          (eV)          (eV)          (eV)        (eV/Angs)
      1 Sb    c       0.000000      0.000000      0.000000      0.000000
      2 Sb    c       0.003070      0.003070      0.003070      0.000000
      3 Te1   c      -0.000000     -0.000000     -0.000000      0.000000
      4 Te2   c       0.002397      0.002397      0.002397      0.000000
      5 Te2   c      -0.002397     -0.002397     -0.002397      0.000000
  Maximum abs         0.003070      0.003070      0.003070      0.000000

  Born effective charge tensors :

  Atom             x           y             z
   1 Sb    x       0.6200      0.0000      0.0000
           y       0.0000      0.6200      0.0000
           z       0.0000      0.0000      0.6200
   2 Sb    x       0.6200      0.0000      0.0000
           y       0.0000      0.6200      0.0000
           z       0.0000      0.0000      0.6200
   3 Te1   x      -0.5000      0.0000      0.0000
           y       0.0000     -0.5000      0.0000
           z       0.0000      0.0000     -0.5000
   4 Te2   x      -0.3700      0.0000      0.0000
           y       0.0000     -0.3700      0.0000
           z       0.0000      0.0000     -0.3700
   5 Te2   x      -0.3700      0.0000      0.0000
           y       0.0000     -0.3700      0.0000
           z       0.0000      0.0000     -0.3700

  Elastic Constant Matrix: (Units=GPa)

[...]

  Elastic Compliance Matrix: (Units=1/GPa)

  Indices      1         2         3         4         5         6
       1    0.046243 -0.044699 -0.024746 -0.036590  0.043604  0.073442
       2   -0.044699 -0.049704  0.123339  0.055752  0.049334 -0.032121
       3   -0.024746  0.123339 -0.068157 -0.021911 -0.106269 -0.063775
       4   -0.036590  0.055752 -0.021911 -0.264465  0.044696  0.200933
       5    0.043604  0.049334 -0.106269  0.044696 -0.056900 -0.052096
       6    0.073442 -0.032121 -0.063775  0.200933 -0.052096 -0.113715

 Mechanical properties :

  Convention :                    Reuss         Voigt         Hill
  Bulk  Modulus (GPa)     =      27.64718      51.60636      39.62677
  Shear Modulus (GPa)     =      -8.29972      24.85858       8.27943
  Velocity S-wave (km/s)  =      -3.54710       6.13875       3.54276
  Velocity P-wave (km/s)  =       5.01355      11.33481       8.76395
  Compressibility (1/GPa) =    0.03617005
  Stress axis :                     x             y             z
  Youngs Moduli (GPa)     =      21.62503     -20.11927     -14.67194
  Poissons Ratio (x)      =                    -0.89930      -0.36307
  Poissons Ratio (y)      =       0.96661                     1.80962
  Poissons Ratio (z)      =       0.53513       2.48149

  Piezoelectric Strain Matrix: (Units=C/m**2)

[...]

  Piezoelectric Stress Matrix: (Units=10**-11 C/N)

  Indices      1         2         3         4         5         6
       x    -0.00000   0.00000   0.00000   0.00000  -0.00000  -0.00000
       y    -0.00000   0.00000   0.00000  -0.00000   0.00000   0.00000
       z    -0.00000  -0.00000   0.00000   0.00000   0.00000   0.00000

  Static dielectric constant tensor :

              x         y         z
       x     1.08531  -0.00675  -0.00401
       y    -0.00675   1.11666  -0.00083
       z    -0.00401  -0.00083   1.11756

  Static refractive indices :

    1 =    1.04088      2 =    1.05738      3 =    1.05738

  Time to end of optimisation =     948.5153 seconds

  Timing analysis for GULP :

  Task / Subroutine                                          Time (Seconds)
  Calculation of reciprocal space energy and derivatives         55.7995
  Calculation of real space energy and derivatives              866.0061
  Sum of squares for fitting                                     19.8412
  Global summation overhead                                       0.8401

  Dump file written as sb2te3.res

  **** GULP has completed with 150 warnings - beware! ****

  Job Finished at 17:42.18  8th June       2010