  Job Started  at 15:52.32 23rd June       2010

  Number of CPUs =     1

  Total number of configurations input = 150

*  Input for Configuration =   1                                               *

  Formula = Sb2Te3

  Number of irreducible atoms/shells =       5

  Total number atoms/shells =       5

  Dimensionality = 3               :  Bulk

  Cartesian lattice vectors (Angstroms) :

       -2.504286    0.000000   10.443767
        1.252143   -2.168775   10.443767
        1.252143    2.168775   10.443767

  Cell parameters (Angstroms/Degrees):

  a =      10.7398    alpha =  23.3006
  b =      10.7398    beta  =  23.3006
  c =      10.7398    gamma =  23.3006

  Initial cell volume =         170.167643 Angs**3

  Temperature of configuration =  0.000     K

  Pressure of configuration =         0.000 GPa

  Fractional coordinates of asymmetric unit :

   No.  Atomic       x           y          z         Charge      Occupancy
        Label      (Frac)      (Frac)     (Frac)        (e)         (Frac)
      1 Sb    c    0.369021    0.369021    0.369021      0.6200    1.000000
      2 Sb    c    0.603203    0.603203    0.603203      0.6200    1.000000
      3 Te1   c    0.000000    0.000000    0.000000     -0.5000    1.000000
      4 Te2   c    0.784571    0.784571    0.784571     -0.3700    1.000000
      5 Te2   c    0.215429    0.215429    0.215429     -0.3700    1.000000

[...]

   No.  Atomic       x           y          z         Charge      Occupancy
        Label      (Frac)      (Frac)     (Frac)        (e)         (Frac)
      1 Sb    c    0.396797    0.396797    0.396797      0.6200    1.000000
      2 Sb    c    0.603203    0.603203    0.603203      0.6200    1.000000
      3 Te1   c    0.000000    0.000000    0.000000     -0.5000    1.000000
      4 Te2   c    0.784571    0.784571    0.784571     -0.3700    1.000000
      5 Te2   c    0.215429    0.215429    0.215429     -0.3700    1.000000

*  Input for Configuration = 150                                               *

  Formula = Sb2Te3

  Number of irreducible atoms/shells =       5

  Total number atoms/shells =       5

  Dimensionality = 3               :  Bulk

  Cartesian lattice vectors (Angstroms) :

[...]

  Cell parameters (Angstroms/Degrees):

  a =      10.7398    alpha =  23.3000
  b =      10.7398    beta  =  23.3000
  c =      10.7398    gamma =  23.3000

  Initial cell volume =         170.158355 Angs**3

  Temperature of configuration =  0.000     K

  Pressure of configuration =         0.000 GPa

  Fractional coordinates of asymmetric unit :

   No.  Atomic       x           y          z         Charge      Occupancy
        Label      (Frac)      (Frac)     (Frac)        (e)         (Frac)
      1 Sb    c    0.396797    0.396797    0.396797      0.6200    1.000000
      2 Sb    c    0.603203 *  0.603203 *  0.603203 *    0.6200    1.000000
      3 Te1   c    0.000000 *  0.000000 *  0.000000 *   -0.5000    1.000000
      4 Te2   c    0.784571 *  0.784571 *  0.784571 *   -0.3700    1.000000
      5 Te2   c    0.215429 *  0.215429 *  0.215429 *   -0.3700    1.000000

*  General input information                                                   *

  Species output for all configurations :

  Species    Type    Atomic    Atomic    Charge       Radii (Angs)     Library
                     Number     Mass       (e)     Cova   Ionic  VDW   Symbol
    Sb       Core       51     121.75     0.6200   1.460  0.000  2.170
    Te1      Core       52     127.60    -0.5000   1.470  0.000  2.200
    Te2      Core       52     127.60    -0.3700   1.470  0.000  2.200

  Lattice summation method               =    Ewald
  Accuracy factor for lattice sums       =    8.000

  Time limit = Infinity

  Maximum range for interatomic potentials =         8.000000 Angstroms

  Taper potentials to zero over   8.0000 Angstroms using Voter m =  20.0000

  General interatomic potentials :

Atom  Types   Potential         A         B         C         D     Cutoffs(Ang)
  1     2                                                            Min    Max
Sb   c Te2  c Morse         0.230      3.65     3.03     0.00       0.000 12.000
Sb   c Te1  c Morse         0.548      1.18     3.20     0.00       0.000 12.000
Sb   c Sb   c Morse         0.500E-01  1.00     4.34     0.00       0.000 12.000
Te1  c Te1  c Morse         0.730E-01  1.07     4.34     0.00       0.000 12.000
Te1  c Te2  c Morse         0.470E-01  1.07     4.47     0.00       0.000 12.000
Te2  c Te2  c Morse         0.740E-01  2.72     3.93     0.00       0.000 12.000

  Energy shifts for configurations :

      Configuration           Energy (eV)        Scale Factor
             1               -6.78000                 1.000
             2               -6.78000                 1.000
             3               -6.78000                 1.000
             4               -6.78000                 1.000
             5               -6.78000                 1.000
             6               -6.78000                 1.000
             7               -6.78000                 1.000
             8               -6.78000                 1.000
             9               -6.78000                 1.000
            10               -6.78000                 1.000
            11               -6.78000                 1.000
            12               -6.78000                 1.000
            13               -6.78000                 1.000
            14               -6.78000                 1.000
            15               -6.78000                 1.000
            16               -6.78000                 1.000
            17               -6.78000                 1.000
            18               -6.78000                 1.000
            19               -6.78000                 1.000
            20               -6.78000                 1.000
            21               -6.78000                 1.000
            22               -6.78000                 1.000
            23               -6.78000                 1.000
            24               -6.78000                 1.000
            25               -6.78000                 1.000
            26               -6.78000                 1.000
            27               -6.78000                 1.000
            28               -6.78000                 1.000
            29               -6.78000                 1.000
            30               -6.78000                 1.000
            31               -6.78000                 1.000
            32               -6.78000                 1.000
            33               -6.78000                 1.000
            34               -6.78000                 1.000
            35               -6.78000                 1.000
            36               -6.78000                 1.000
            37               -6.78000                 1.000
            38               -6.78000                 1.000
            39               -6.78000                 1.000
            40               -6.78000                 1.000
            41               -6.78000                 1.000
            42               -6.78000                 1.000
            43               -6.78000                 1.000
            44               -6.78000                 1.000
            45               -6.78000                 1.000
            46               -6.78000                 1.000
            47               -6.78000                 1.000
            48               -6.78000                 1.000
            49               -6.78000                 1.000
            50               -6.78000                 1.000
            51               -6.78000                 1.000
            52               -6.78000                 1.000
            53               -6.78000                 1.000
            54               -6.78000                 1.000
            55               -6.78000                 1.000
            56               -6.78000                 1.000
            57               -6.78000                 1.000
            58               -6.78000                 1.000
            59               -6.78000                 1.000
            60               -6.78000                 1.000
[...]
           136               -6.78000                 1.000
           137               -6.78000                 1.000
           138               -6.78000                 1.000
           139               -6.78000                 1.000
           140               -6.78000                 1.000
           141               -6.78000                 1.000
           142               -6.78000                 1.000
           143               -6.78000                 1.000
           144               -6.78000                 1.000
           145               -6.78000                 1.000
           146               -6.78000                 1.000
           147               -6.78000                 1.000
           148               -6.78000                 1.000
           149               -6.78000                 1.000
           150               -6.78000                 1.000

  Number of variables   =   19
  Number of observables =  167

   Observable no.  Type           Observable    Weight       Reference  Confign
          1        Energy          -16.066600        0.0000                1
          2        Energy          -16.584500        0.0000                2
          3        Energy          -17.060200        0.0000                3
          4        Energy          -17.480900        0.0000                4
          5        Energy          -17.831400        0.2000                5
          6        Energy          -18.095000        0.5000                6
          7        Energy          -18.258200        0.5000                7
          8        Energy          -18.313000        1.0000                8
          9        Energy          -18.257900        0.5000                9
         10        Energy          -18.096800        0.5000               10
         11        Energy          -17.838700        0.2000               11
         12        Energy          -17.496800        0.0000               12
         13        Energy          -17.088900        0.0000               13
         14        Energy          -16.635400        0.0000               14
         15        Energy          -16.162800        0.0000               15
         16        Energy          -14.700000        0.0000               16
         17        Energy          -15.230000        0.0000               17
         18        Energy          -15.880000        0.0000               18
         19        Energy          -16.600000        0.0000               19
         20        Energy          -17.270000        0.2000               20
         21        Energy          -17.830000        0.5000               21
         22        Energy          -18.190000        0.5000               22
         23        Energy          -18.310000        1.0000               23
         24        Energy          -18.190000        0.5000               24
[...]
        154        Derivative         0.00000     -0.02951      0.03508
        155        Derivative         0.00000     -0.04970      0.05909
        156        Derivative         0.00000      2.09890      0.62559
        157        Derivative         0.00000      2.09890      0.62559
        158        Derivative         0.00000      2.09890      0.62559
        159        Derivative         0.00000      0.00001      0.00001
        160        Derivative         0.00000      0.00001      0.00001
        161        Derivative         0.00000      0.00001      0.00001
        162        Derivative         0.00000      5.64992     -0.15007
        163        Derivative         0.00000      5.64992     -0.15007
        164        Derivative         0.00000      5.64992     -0.15007
        165        Derivative         0.00000     -5.64992      0.15007
        166        Derivative         0.00000     -5.64992      0.15007
        167        Derivative         0.00000     -5.64992      0.15007

  Maximum range for interatomic potentials =         8.000000 Angstroms

  Taper potentials to zero over   8.0000 Angstroms using Voter m =  20.0000

  General interatomic potentials :

Atom  Types   Potential         A         B         C         D     Cutoffs(Ang)
  1     2                                                            Min    Max
Sb   c Te2  c Morse         0.147      4.28     3.06     0.00       0.000 12.000
Sb   c Te1  c Morse         0.573      1.24     3.26     0.00       0.000 12.000
Sb   c Sb   c Morse         0.457E-01 0.998     4.37     0.00       0.000 12.000
Te1  c Te1  c Morse         0.725E-01  1.07     4.34     0.00       0.000 12.000
Te1  c Te2  c Morse         0.453E-01  1.07     4.48     0.00       0.000 12.000
Te2  c Te2  c Morse         0.742E-01  2.68     3.75     0.00       0.000 12.000

  Energy shifts for configurations :

      Configuration           Energy (eV)        Scale Factor
             1               -7.33440                 1.000
             2               -7.33440                 1.000
             3               -7.33440                 1.000
             4               -7.33440                 1.000
             5               -7.33440                 1.000
             6               -7.33440                 1.000
             7               -7.33440                 1.000
             8               -7.33440                 1.000
             9               -7.33440                 1.000
            10               -7.33440                 1.000
            11               -7.33440                 1.000
            12               -7.33440                 1.000
            13               -7.33440                 1.000
            14               -7.33440                 1.000
            15               -7.33440                 1.000
            16               -7.33440                 1.000
            17               -7.33440                 1.000
            18               -7.33440                 1.000
            19               -7.33440                 1.000
            20               -7.33440                 1.000
            21               -7.33440                 1.000
            22               -7.33440                 1.000
            23               -7.33440                 1.000
            24               -7.33440                 1.000
            25               -7.33440                 1.000
            26               -7.33440                 1.000
            27               -7.33440                 1.000
            28               -7.33440                 1.000
            29               -7.33440                 1.000
            30               -7.33440                 1.000
            31               -7.33440                 1.000
            32               -7.33440                 1.000
            33               -7.33440                 1.000
            34               -7.33440                 1.000
            35               -7.33440                 1.000
            36               -7.33440                 1.000
            37               -7.33440                 1.000
            38               -7.33440                 1.000
            39               -7.33440                 1.000
            40               -7.33440                 1.000
            41               -7.33440                 1.000
            42               -7.33440                 1.000
            43               -7.33440                 1.000
            44               -7.33440                 1.000
            45               -7.33440                 1.000
            46               -7.33440                 1.000
            47               -7.33440                 1.000
            48               -7.33440                 1.000
            49               -7.33440                 1.000
            50               -7.33440                 1.000
            51               -7.33440                 1.000
            52               -7.33440                 1.000
            53               -7.33440                 1.000
            54               -7.33440                 1.000
            55               -7.33440                 1.000
            56               -7.33440                 1.000
            57               -7.33440                 1.000
            58               -7.33440                 1.000
            59               -7.33440                 1.000
            60               -7.33440                 1.000
[...]
           136               -7.33440                 1.000
           137               -7.33440                 1.000
           138               -7.33440                 1.000
           139               -7.33440                 1.000
           140               -7.33440                 1.000
           141               -7.33440                 1.000
           142               -7.33440                 1.000
           143               -7.33440                 1.000
           144               -7.33440                 1.000
           145               -7.33440                 1.000
           146               -7.33440                 1.000
           147               -7.33440                 1.000
           148               -7.33440                 1.000
           149               -7.33440                 1.000
           150               -7.33440                 1.000

  Total time to end of fitting =     498.5552 seconds

*  Output for configuration   1                                                *

!! WARNING : No variables to optimise - single point performed

  Components of energy :

  Interatomic potentials     =          -4.43140643 eV
  Monopole - monopole (real) =          -1.17953623 eV
  Monopole - monopole (recip)=          -3.08937235 eV
  Monopole - monopole (total)=          -4.26890857 eV
  Energy shift               =          -7.33439748 eV
  Total lattice energy       =         -16.03471249 eV
  Total lattice energy       =           -1547.1046 kJ/(mole unit cells)

  Born effective charge tensors :

  Atom             x           y             z
   1 Sb    x       0.6200      0.0000      0.0000
           y       0.0000      0.6200      0.0000
           z       0.0000      0.0000      0.6200
   2 Sb    x       0.6200      0.0000      0.0000
           y       0.0000      0.6200      0.0000
           z       0.0000      0.0000      0.6200
   3 Te1   x      -0.5000      0.0000      0.0000
           y       0.0000     -0.5000      0.0000
           z       0.0000      0.0000     -0.5000
   4 Te2   x      -0.3700      0.0000      0.0000
           y       0.0000     -0.3700      0.0000
           z       0.0000      0.0000     -0.3700
   5 Te2   x      -0.3700      0.0000      0.0000
           y       0.0000     -0.3700      0.0000
           z       0.0000      0.0000     -0.3700

  Elastic Constant Matrix: (Units=GPa)

  Indices      1         2         3         4         5         6
       1     28.8391   21.6118   28.0547    0.0000   17.0890   -0.0000
       2     21.6118   28.8391   28.0547   -0.0000  -17.0890    0.0000
       3     28.0547   28.0547   16.6485   -0.0000   -0.0000    0.0000
       4      0.0000   -0.0000   -0.0000   21.3289   -0.0000  -17.0890
       5     17.0890  -17.0890   -0.0000   -0.0000   21.3289   -0.0000
       6     -0.0000    0.0000    0.0000  -17.0890   -0.0000    3.6136

  Elastic Compliance Matrix: (Units=1/GPa)

[...]

 Mechanical properties :

  Convention :                    Reuss         Voigt         Hill
  Bulk  Modulus (GPa)     =      25.78773      25.52987      25.65880
  Shear Modulus (GPa)     =     -11.34556       9.02797      -1.15880
  Velocity S-wave (km/s)  =      -4.30856       3.84339      -1.37696
  Velocity P-wave (km/s)  =       4.17642       7.84013       6.28133
  Compressibility (1/GPa) =    0.03877812
  Stress axis :                     x             y             z
  Youngs Moduli (GPa)     =     -27.66754     -27.66754     -14.55271
  Poissons Ratio (x)      =                     0.37262       0.55608
  Poissons Ratio (y)      =       0.37262                     0.55608
  Poissons Ratio (z)      =       1.05721       1.05721

  Piezoelectric Strain Matrix: (Units=C/m**2)

  Indices      1         2         3         4         5         6
       x     3.47548  -3.47548  -0.00000   0.00000   4.69343  -0.00000
       y     0.00000   0.00000  -0.00000   4.69343   0.00000  -3.47548
       z     3.26037   3.26037   1.70221   0.00000  -0.00000  -0.00000

  Piezoelectric Stress Matrix: (Units=10**-11 C/N)

[...]

  Static dielectric constant tensor :

              x         y         z
       x    -0.02586  -0.00000  -0.00000
       y    -0.00000  -0.02586  -0.00000
       z    -0.00000  -0.00000   0.58765

  Static refractive indices :

    1 =   -0.16082      2 =   -0.16082      3 =    0.76658

  Time to end of properties =     498.5592 seconds

[...]

!! WARNING : No variables to optimise - single point performed

[...]

  Time to end of properties =     498.9512 seconds

*  Output for configuration 150                                                *

[...]

  Number of variables =     18

  Maximum number of calculations  =          1000
  Maximum Hessian update interval =            10
  Maximum step size               =   1.000000000
  Maximum parameter tolerance     =   0.000010000
  Maximum function  tolerance     =   0.000010000
  Maximum gradient  tolerance     =   0.001000000
  Maximum gradient  component     =   0.010000000

  Symmetry not applied to optimisation

  Cell parameters to be optimised using strains

  Newton-Raphson optimiser to be used

  BFGS hessian update to be used

  Dumpfile to be written after every cycle

  Start of bulk optimisation :

  ** Hessian calculated **

  **** Optimisation achieved ****

  Final energy =     -18.15324646 eV
  Final Gnorm  =       0.00005620

  Components of energy :

  Interatomic potentials     =          -6.23811536 eV
  Monopole - monopole (real) =          -1.08179819 eV
  Monopole - monopole (recip)=          -3.49893543 eV
  Monopole - monopole (total)=          -4.58073362 eV
  Energy shift               =          -7.33439748 eV
  Total lattice energy       =         -18.15324646 eV
  Total lattice energy       =           -1751.5108 kJ/(mole unit cells)

  Final fractional coordinates of atoms :

   No.  Atomic        x           y          z          Radius
        Label       (Frac)      (Frac)     (Frac)       (Angs)
     1  Sb    c     0.396797    0.396797    0.396797    0.000000
     2  Sb    c     0.602158    0.602158    0.602158    0.000000
     3  Te1   c     0.999477    0.999477    0.999477    0.000000
     4  Te2   c     0.787508    0.787508    0.787508    0.000000
     5  Te2   c     0.211446    0.211446    0.211446    0.000000

  Final Cartesian lattice vectors (Angstroms) :

       10.730793    0.080094    0.047553
        9.887338    4.170955    0.047553
        9.887338    2.038573    3.639141

  Final cell parameters and derivatives :

       a           10.731197 Angstrom     dE/de1(xx)    -0.000354 eV/strain
       b           10.731197 Angstrom     dE/de2(yy)    -0.000211 eV/strain
       c           10.731197 Angstrom     dE/de3(zz)    -0.000207 eV/strain
       alpha       22.444489 Degrees      dE/de4(yz)    -0.000004 eV/strain
       beta        22.444489 Degrees      dE/de5(xz)    -0.000018 eV/strain
       gamma       22.444489 Degrees      dE/de6(xy)    -0.000031 eV/strain

  Primitive cell volume =           157.992334 Angs**3

  Density of cell =      6.582675 g/cm**3

  Non-primitive cell volume =           157.992334 Angs**3

  Final internal derivatives :

   No.  Atomic          x             y             z           Radius
        Label          (eV)          (eV)          (eV)        (eV/Angs)
      1 Sb    c       0.000000      0.000000      0.000000      0.000000
      2 Sb    c       0.000043      0.000043      0.000043      0.000000
      3 Te1   c      -0.000000     -0.000000     -0.000000      0.000000
      4 Te2   c      -0.000366     -0.000366     -0.000366      0.000000
      5 Te2   c       0.000366      0.000366      0.000366      0.000000
  Maximum abs         0.000366      0.000366      0.000366      0.000000

  Born effective charge tensors :

  Atom             x           y             z
   1 Sb    x       0.6200      0.0000      0.0000
           y       0.0000      0.6200      0.0000
           z       0.0000      0.0000      0.6200
   2 Sb    x       0.6200      0.0000      0.0000
           y       0.0000      0.6200      0.0000
           z       0.0000      0.0000      0.6200
   3 Te1   x      -0.5000      0.0000      0.0000
           y       0.0000     -0.5000      0.0000
           z       0.0000      0.0000     -0.5000
   4 Te2   x      -0.3700      0.0000      0.0000
           y       0.0000     -0.3700      0.0000
           z       0.0000      0.0000     -0.3700
   5 Te2   x      -0.3700      0.0000      0.0000
           y       0.0000     -0.3700      0.0000
           z       0.0000      0.0000     -0.3700

  Elastic Constant Matrix: (Units=GPa)

[...]

  Elastic Compliance Matrix: (Units=1/GPa)

  Indices      1         2         3         4         5         6
       1    0.040993 -0.039579 -0.019506 -0.036811  0.041303  0.069568
       2   -0.039579 -0.053095  0.116689  0.056089  0.052199 -0.029047
       3   -0.019506  0.116689 -0.071958 -0.021498 -0.104269 -0.058655
       4   -0.036811  0.056089 -0.021498 -0.258454  0.042623  0.199353
       5    0.041303  0.052199 -0.104269  0.042623 -0.060515 -0.054044
       6    0.069568 -0.029047 -0.058655  0.199353 -0.054044 -0.119455

 Mechanical properties :

  Convention :                    Reuss         Voigt         Hill
  Bulk  Modulus (GPa)     =      32.10388      53.56923      42.83656
  Shear Modulus (GPa)     =      -7.97054      25.58372       8.80659
  Velocity S-wave (km/s)  =      -3.47971       6.23420       3.65765
  Velocity P-wave (km/s)  =       5.71190      11.54121       9.10564
  Compressibility (1/GPa) =    0.03114888
  Stress axis :                     x             y             z
  Youngs Moduli (GPa)     =      24.39437     -18.83403     -13.89703
  Poissons Ratio (x)      =                    -0.74543      -0.27107
  Poissons Ratio (y)      =       0.96550                     1.62163
  Poissons Ratio (z)      =       0.47583       2.19772

  Piezoelectric Strain Matrix: (Units=C/m**2)

[...]

  Piezoelectric Stress Matrix: (Units=10**-11 C/N)

  Indices      1         2         3         4         5         6
       x    -0.00000   0.00000   0.00000   0.00000  -0.00000  -0.00000
       y    -0.00000   0.00000   0.00000  -0.00000   0.00000   0.00000
       z    -0.00000  -0.00000   0.00000   0.00000   0.00000   0.00000

  Static dielectric constant tensor :

              x         y         z
       x     1.07586  -0.00610  -0.00362
       y    -0.00610   1.10418  -0.00075
       z    -0.00362  -0.00075   1.10500

  Static refractive indices :

    1 =    1.03642      2 =    1.05140      3 =    1.05140

  Time to end of optimisation =     499.1592 seconds

  Timing analysis for GULP :

  Task / Subroutine                                          Time (Seconds)
  Calculation of reciprocal space energy and derivatives         29.3258
  Calculation of real space energy and derivatives              455.3326
  Sum of squares for fitting                                     10.6966
  Global summation overhead                                       0.4560

  Dump file written as sb2te3.res

  **** GULP has completed with 149 warnings - beware! ****

  Job Finished at 16:04.34 23rd June       2010