  Job Started  at 15:57.11 23rd June       2010

  Number of CPUs =     1

  Total number of configurations input = 150

*  Input for Configuration =   1                                               *

  Formula = Sb2Te3

  Number of irreducible atoms/shells =       5

  Total number atoms/shells =       5

  Dimensionality = 3               :  Bulk

  Cartesian lattice vectors (Angstroms) :

       -2.504286    0.000000   10.443767
        1.252143   -2.168775   10.443767
        1.252143    2.168775   10.443767

  Cell parameters (Angstroms/Degrees):

  a =      10.7398    alpha =  23.3006
  b =      10.7398    beta  =  23.3006
  c =      10.7398    gamma =  23.3006

  Initial cell volume =         170.167643 Angs**3

  Temperature of configuration =  0.000     K

  Pressure of configuration =         0.000 GPa

  Fractional coordinates of asymmetric unit :

   No.  Atomic       x           y          z         Charge      Occupancy
        Label      (Frac)      (Frac)     (Frac)        (e)         (Frac)
      1 Sb    c    0.369021    0.369021    0.369021      0.6200    1.000000
      2 Sb    c    0.603203    0.603203    0.603203      0.6200    1.000000
      3 Te1   c    0.000000    0.000000    0.000000     -0.5000    1.000000
      4 Te2   c    0.784571    0.784571    0.784571     -0.3700    1.000000
      5 Te2   c    0.215429    0.215429    0.215429     -0.3700    1.000000

[...]

   No.  Atomic       x           y          z         Charge      Occupancy
        Label      (Frac)      (Frac)     (Frac)        (e)         (Frac)
      1 Sb    c    0.396797    0.396797    0.396797      0.6200    1.000000
      2 Sb    c    0.603203    0.603203    0.603203      0.6200    1.000000
      3 Te1   c    0.000000    0.000000    0.000000     -0.5000    1.000000
      4 Te2   c    0.784571    0.784571    0.784571     -0.3700    1.000000
      5 Te2   c    0.215429    0.215429    0.215429     -0.3700    1.000000

*  Input for Configuration = 150                                               *

  Formula = Sb2Te3

  Number of irreducible atoms/shells =       5

  Total number atoms/shells =       5

  Dimensionality = 3               :  Bulk

  Cartesian lattice vectors (Angstroms) :

[...]

  Cell parameters (Angstroms/Degrees):

  a =      10.7398    alpha =  23.3000
  b =      10.7398    beta  =  23.3000
  c =      10.7398    gamma =  23.3000

  Initial cell volume =         170.158355 Angs**3

  Temperature of configuration =  0.000     K

  Pressure of configuration =         0.000 GPa

  Fractional coordinates of asymmetric unit :

   No.  Atomic       x           y          z         Charge      Occupancy
        Label      (Frac)      (Frac)     (Frac)        (e)         (Frac)
      1 Sb    c    0.396797    0.396797    0.396797      0.6200    1.000000
      2 Sb    c    0.603203 *  0.603203 *  0.603203 *    0.6200    1.000000
      3 Te1   c    0.000000 *  0.000000 *  0.000000 *   -0.5000    1.000000
      4 Te2   c    0.784571 *  0.784571 *  0.784571 *   -0.3700    1.000000
      5 Te2   c    0.215429 *  0.215429 *  0.215429 *   -0.3700    1.000000

*  General input information                                                   *

  Species output for all configurations :

  Species    Type    Atomic    Atomic    Charge       Radii (Angs)     Library
                     Number     Mass       (e)     Cova   Ionic  VDW   Symbol
    Sb       Core       51     121.75     0.6200   1.460  0.000  2.170
    Te1      Core       52     127.60    -0.5000   1.470  0.000  2.200
    Te2      Core       52     127.60    -0.3700   1.470  0.000  2.200

  Lattice summation method               =    Ewald
  Accuracy factor for lattice sums       =    8.000

  Time limit = Infinity

  Maximum range for interatomic potentials =         8.000000 Angstroms

  Taper potentials to zero over   8.0000 Angstroms using Voter m =  20.0000

  General interatomic potentials :

Atom  Types   Potential         A         B         C         D     Cutoffs(Ang)
  1     2                                                            Min    Max
Sb   c Te2  c Morse         0.230      3.65     3.03     0.00       0.000 12.000
Sb   c Te1  c Morse         0.548      1.18     3.20     0.00       0.000 12.000
Sb   c Sb   c Morse         0.500E-01  1.00     4.34     0.00       0.000 12.000
Te1  c Te1  c Morse         0.730E-01  1.07     4.34     0.00       0.000 12.000
Te1  c Te2  c Morse         0.470E-01  1.07     4.47     0.00       0.000 12.000
Te2  c Te2  c Morse         0.740E-01  1.50     3.93     0.00       0.000 12.000

  Energy shifts for configurations :

      Configuration           Energy (eV)        Scale Factor
             1               -6.78000                 1.000
             2               -6.78000                 1.000
             3               -6.78000                 1.000
             4               -6.78000                 1.000
             5               -6.78000                 1.000
             6               -6.78000                 1.000
             7               -6.78000                 1.000
             8               -6.78000                 1.000
             9               -6.78000                 1.000
            10               -6.78000                 1.000
            11               -6.78000                 1.000
            12               -6.78000                 1.000
            13               -6.78000                 1.000
            14               -6.78000                 1.000
            15               -6.78000                 1.000
            16               -6.78000                 1.000
            17               -6.78000                 1.000
            18               -6.78000                 1.000
            19               -6.78000                 1.000
            20               -6.78000                 1.000
            21               -6.78000                 1.000
            22               -6.78000                 1.000
            23               -6.78000                 1.000
            24               -6.78000                 1.000
            25               -6.78000                 1.000
            26               -6.78000                 1.000
            27               -6.78000                 1.000
            28               -6.78000                 1.000
            29               -6.78000                 1.000
            30               -6.78000                 1.000
            31               -6.78000                 1.000
            32               -6.78000                 1.000
            33               -6.78000                 1.000
            34               -6.78000                 1.000
            35               -6.78000                 1.000
            36               -6.78000                 1.000
            37               -6.78000                 1.000
            38               -6.78000                 1.000
            39               -6.78000                 1.000
            40               -6.78000                 1.000
            41               -6.78000                 1.000
            42               -6.78000                 1.000
            43               -6.78000                 1.000
            44               -6.78000                 1.000
            45               -6.78000                 1.000
            46               -6.78000                 1.000
            47               -6.78000                 1.000
            48               -6.78000                 1.000
            49               -6.78000                 1.000
            50               -6.78000                 1.000
            51               -6.78000                 1.000
            52               -6.78000                 1.000
            53               -6.78000                 1.000
            54               -6.78000                 1.000
            55               -6.78000                 1.000
            56               -6.78000                 1.000
            57               -6.78000                 1.000
            58               -6.78000                 1.000
            59               -6.78000                 1.000
            60               -6.78000                 1.000
[...]
           136               -6.78000                 1.000
           137               -6.78000                 1.000
           138               -6.78000                 1.000
           139               -6.78000                 1.000
           140               -6.78000                 1.000
           141               -6.78000                 1.000
           142               -6.78000                 1.000
           143               -6.78000                 1.000
           144               -6.78000                 1.000
           145               -6.78000                 1.000
           146               -6.78000                 1.000
           147               -6.78000                 1.000
           148               -6.78000                 1.000
           149               -6.78000                 1.000
           150               -6.78000                 1.000

  Number of variables   =   19
  Number of observables =  167

   Observable no.  Type           Observable    Weight       Reference  Confign
          1        Energy          -16.066600        0.0000                1
          2        Energy          -16.584500        0.0000                2
          3        Energy          -17.060200        0.0000                3
          4        Energy          -17.480900        0.0000                4
          5        Energy          -17.831400        0.2000                5
          6        Energy          -18.095000        0.5000                6
          7        Energy          -18.258200        0.5000                7
          8        Energy          -18.313000        1.0000                8
          9        Energy          -18.257900        0.5000                9
         10        Energy          -18.096800        0.5000               10
         11        Energy          -17.838700        0.2000               11
         12        Energy          -17.496800        0.0000               12
         13        Energy          -17.088900        0.0000               13
         14        Energy          -16.635400        0.0000               14
         15        Energy          -16.162800        0.0000               15
         16        Energy          -14.700000        0.0000               16
         17        Energy          -15.230000        0.0000               17
         18        Energy          -15.880000        0.0000               18
         19        Energy          -16.600000        0.0000               19
         20        Energy          -17.270000        0.2000               20
         21        Energy          -17.830000        0.5000               21
         22        Energy          -18.190000        0.5000               22
         23        Energy          -18.310000        1.0000               23
         24        Energy          -18.190000        0.5000               24
[...]
             3               -8.60242                 1.000
             4               -8.60242                 1.000
             5               -8.60242                 1.000
             6               -8.60242                 1.000
             7               -8.60242                 1.000
             8               -8.60242                 1.000
             9               -8.60242                 1.000
            10               -8.60242                 1.000
            11               -8.60242                 1.000
            12               -8.60242                 1.000
            13               -8.60242                 1.000
            14               -8.60242                 1.000
            15               -8.60242                 1.000
            16               -8.60242                 1.000
            17               -8.60242                 1.000
            18               -8.60242                 1.000
            19               -8.60242                 1.000
            20               -8.60242                 1.000
            21               -8.60242                 1.000
            22               -8.60242                 1.000
            23               -8.60242                 1.000
            24               -8.60242                 1.000
            25               -8.60242                 1.000
            26               -8.60242                 1.000
            27               -8.60242                 1.000
            28               -8.60242                 1.000
            29               -8.60242                 1.000
            30               -8.60242                 1.000
            31               -8.60242                 1.000
            32               -8.60242                 1.000
            33               -8.60242                 1.000
            34               -8.60242                 1.000
            35               -8.60242                 1.000
            36               -8.60242                 1.000
            37               -8.60242                 1.000
            38               -8.60242                 1.000
            39               -8.60242                 1.000
            40               -8.60242                 1.000
            41               -8.60242                 1.000
            42               -8.60242                 1.000
            43               -8.60242                 1.000
            44               -8.60242                 1.000
            45               -8.60242                 1.000
            46               -8.60242                 1.000
            47               -8.60242                 1.000
            48               -8.60242                 1.000
            49               -8.60242                 1.000
            50               -8.60242                 1.000
            51               -8.60242                 1.000
            52               -8.60242                 1.000
            53               -8.60242                 1.000
            54               -8.60242                 1.000
            55               -8.60242                 1.000
            56               -8.60242                 1.000
            57               -8.60242                 1.000
            58               -8.60242                 1.000
            59               -8.60242                 1.000
            60               -8.60242                 1.000
[...]
           136               -8.60242                 1.000
           137               -8.60242                 1.000
           138               -8.60242                 1.000
           139               -8.60242                 1.000
           140               -8.60242                 1.000
           141               -8.60242                 1.000
           142               -8.60242                 1.000
           143               -8.60242                 1.000
           144               -8.60242                 1.000
           145               -8.60242                 1.000
           146               -8.60242                 1.000
           147               -8.60242                 1.000
           148               -8.60242                 1.000
           149               -8.60242                 1.000
           150               -8.60242                 1.000

  Total time to end of fitting =    2523.0417 seconds

*  Output for configuration   1                                                *

!! WARNING : No variables to optimise - single point performed

  Components of energy :

  Interatomic potentials     =          -3.68721375 eV
  Monopole - monopole (real) =          -1.17953623 eV
  Monopole - monopole (recip)=          -3.08937235 eV
  Monopole - monopole (total)=          -4.26890857 eV
  Energy shift               =          -8.60242187 eV
  Total lattice energy       =         -16.55854419 eV
  Total lattice energy       =           -1597.6464 kJ/(mole unit cells)

  Born effective charge tensors :

  Atom             x           y             z
   1 Sb    x       0.6200      0.0000      0.0000
           y       0.0000      0.6200      0.0000
           z       0.0000      0.0000      0.6200
   2 Sb    x       0.6200      0.0000      0.0000
           y       0.0000      0.6200      0.0000
           z       0.0000      0.0000      0.6200
   3 Te1   x      -0.5000      0.0000      0.0000
           y       0.0000     -0.5000      0.0000
           z       0.0000      0.0000     -0.5000
   4 Te2   x      -0.3700      0.0000      0.0000
           y       0.0000     -0.3700      0.0000
           z       0.0000      0.0000     -0.3700
   5 Te2   x      -0.3700      0.0000      0.0000
           y       0.0000     -0.3700      0.0000
           z       0.0000      0.0000     -0.3700

  Elastic Constant Matrix: (Units=GPa)

  Indices      1         2         3         4         5         6
       1    -30.7074  -13.7664    2.9344   -0.0000    1.2608    0.0000
       2    -13.7664  -30.7074    2.9344    0.0000   -1.2608    0.0000
       3      2.9344    2.9344   -1.2605   -0.0000    0.0000    0.0000
       4     -0.0000    0.0000   -0.0000   -1.4356   -0.0000   -1.2608
       5      1.2608   -1.2608    0.0000   -0.0000   -1.4356    0.0000
       6      0.0000    0.0000    0.0000   -1.2608    0.0000   -8.4705

  Elastic Compliance Matrix: (Units=1/GPa)

[...]

 Mechanical properties :

  Convention :                    Reuss         Voigt         Hill
  Bulk  Modulus (GPa)     =      -0.66125      -8.71895      -4.69010
  Shear Modulus (GPa)     =      -1.55215      -5.92017      -3.73616
  Velocity S-wave (km/s)  =      -1.59362      -3.11233      -2.47247
  Velocity P-wave (km/s)  =       2.11379       5.21359       3.97804
  Compressibility (1/GPa) =   -1.51229145
  Stress axis :                     x             y             z
  Youngs Moduli (GPa)     =     -19.92796     -19.92796      -0.87325
  Poissons Ratio (x)      =                     0.35322      -0.06598
  Poissons Ratio (y)      =       0.35322                    -0.06598
  Poissons Ratio (z)      =      -1.50570      -1.50570

  Piezoelectric Strain Matrix: (Units=C/m**2)

  Indices      1         2         3         4         5         6
       x     1.65976  -1.65976  -0.00000  -0.00000   1.01016  -0.00000
       y    -0.00000  -0.00000  -0.00000   1.01016  -0.00000  -1.65976
       z    -0.48091  -0.48091  -0.60035  -0.00000  -0.00000   0.00000

  Piezoelectric Stress Matrix: (Units=10**-11 C/N)

[...]

  Static dielectric constant tensor :

              x         y         z
       x    -0.33094  -0.00000   0.00000
       y    -0.00000  -0.33094   0.00000
       z     0.00000   0.00000   0.76635

  Static refractive indices :

    1 =   -0.57528      2 =   -0.57528      3 =    0.87541

  Time to end of properties =    2523.0457 seconds

[...]

!! WARNING : No variables to optimise - single point performed

[...]

  Time to end of properties =    2523.4337 seconds

*  Output for configuration 150                                                *

[...]

  Number of variables =     18

  Maximum number of calculations  =          1000
  Maximum Hessian update interval =            10
  Maximum step size               =   1.000000000
  Maximum parameter tolerance     =   0.000010000
  Maximum function  tolerance     =   0.000010000
  Maximum gradient  tolerance     =   0.001000000
  Maximum gradient  component     =   0.010000000

  Symmetry not applied to optimisation

  Cell parameters to be optimised using strains

  Newton-Raphson optimiser to be used

  BFGS hessian update to be used

  Dumpfile to be written after every cycle

  Start of bulk optimisation :

[...]

!! ERROR : Cell parameter has fallen below allowed limit

  ** Hessian calculated **
  ** Hessian calculated **
  ** Hessian calculated **
  ** Hessian calculated **
  ** Hessian calculated **
  ** Hessian calculated **
  ** Hessian calculated **
  ** Hessian calculated **
  ** Hessian calculated **
  ** Hessian calculated **
  ** Hessian calculated **
  ** Hessian calculated **
  ** Hessian calculated **
  ** Hessian calculated **
  ** Hessian calculated **
  ** Hessian calculated **
  ** Hessian calculated **
  ** Hessian calculated **
  ** Hessian calculated **
  ** Hessian calculated **
  ** Hessian calculated **
  ** Hessian calculated **
  ** Hessian calculated **
  ** Hessian calculated **
  ** Hessian calculated **
  ** Hessian calculated **
  ** Hessian calculated **
  ** Hessian calculated **
  ** Hessian calculated **
  ** Hessian calculated **
  ** Hessian calculated **
  ** Hessian calculated **
  ** Hessian calculated **
  ** Hessian calculated **
  ** Hessian calculated **
  ** Hessian calculated **
  ** Hessian calculated **
  ** Hessian calculated **
  ** Hessian calculated **
  ** Hessian calculated **
  ** Hessian calculated **
  ** Hessian calculated **
  ** Hessian calculated **
  ** Hessian calculated **
  ** Hessian calculated **
  ** Hessian calculated **
  ** Hessian calculated **
  ** Hessian calculated **
  ** Hessian calculated **
  ** Hessian calculated **
  ** Hessian calculated **
  ** Hessian calculated **
  ** Hessian calculated **
  ** Hessian calculated **
  ** Hessian calculated **
  ** Hessian calculated **
  ** Hessian calculated **
  ** Hessian calculated **
  ** Hessian calculated **
  ** Hessian calculated **
[...]
  ** Hessian calculated **
  ** Hessian calculated **
  ** Hessian calculated **
  ** Hessian calculated **
  ** Hessian calculated **
  ** Hessian calculated **
  ** Hessian calculated **
  ** Hessian calculated **
  ** Hessian calculated **
  ** Hessian calculated **
  ** Hessian calculated **
  ** Hessian calculated **
  ** Hessian calculated **
  ** Hessian calculated **
  ** Hessian calculated **

  **** Maximum number of function calls has been reached ****

  Final energy =     -59.64503570 eV
  Final Gnorm  =       0.00255999

  Components of energy :

  Interatomic potentials     =         -99.00097631 eV
  Monopole - monopole (real) =          38.02082966 eV
  Monopole - monopole (recip)=           9.93753282 eV
  Monopole - monopole (total)=          47.95836248 eV
  Energy shift               =          -8.60242187 eV
  Total lattice energy       =         -59.64503570 eV
  Total lattice energy       =           -5754.8342 kJ/(mole unit cells)

  Final fractional coordinates of atoms :

   No.  Atomic        x           y          z          Radius
        Label       (Frac)      (Frac)     (Frac)       (Angs)
     1  Sb    c     0.396797    0.396797    0.396797    0.000000
     2  Sb    c     0.730555    0.729653    0.688416    0.000000
     3  Te1   c     0.063709    0.063192    0.974334    0.000000
     4  Te2   c     0.063703    0.063197    0.739372    0.000000
     5  Te2   c     0.063704    0.063198    0.209288    0.000000

  Final Cartesian lattice vectors (Angstroms) :

        2.641723   -2.056199   -4.000350
        1.612961    2.905131   -3.908239
        0.647704    0.200864    0.627889

  Final cell parameters and derivatives :

       a            5.216268 Angstrom     dE/de1(xx)    -0.006344 eV/strain
       b            5.129890 Angstrom     dE/de2(yy)    -0.002979 eV/strain
       c            0.924181 Angstrom     dE/de3(zz)    -0.017572 eV/strain
       alpha      100.029764 Degrees      dE/de4(yz)    -0.003657 eV/strain
       beta       104.582390 Degrees      dE/de5(xz)     0.010559 eV/strain
       gamma       58.649767 Degrees      dE/de6(xy)     0.002152 eV/strain

  Primitive cell volume =            20.411302 Angs**3

  Density of cell =     50.952758 g/cm**3

  Non-primitive cell volume =            20.411302 Angs**3

  Final internal derivatives :

   No.  Atomic          x             y             z           Radius
        Label          (eV)          (eV)          (eV)        (eV/Angs)
      1 Sb    c       0.000000      0.000000      0.000000      0.000000
      2 Sb    c       0.012983     -0.004682      0.000004      0.000000
      3 Te1   c       0.022388     -0.021788     -0.000362      0.000000
      4 Te2   c       0.007476     -0.012618      0.001452      0.000000
      5 Te2   c       0.013285     -0.008489     -0.001902      0.000000
  Maximum abs         0.022388      0.021788      0.001902      0.000000

  Born effective charge tensors :

  Atom             x           y             z
   1 Sb    x       0.6200      0.0000      0.0000
           y       0.0000      0.6200      0.0000
           z       0.0000      0.0000      0.6200
   2 Sb    x       0.6200      0.0000      0.0000
           y       0.0000      0.6200      0.0000
           z       0.0000      0.0000      0.6200
   3 Te1   x      -0.5000      0.0000      0.0000
           y       0.0000     -0.5000      0.0000
           z       0.0000      0.0000     -0.5000
   4 Te2   x      -0.3700      0.0000      0.0000
           y       0.0000     -0.3700      0.0000
           z       0.0000      0.0000     -0.3700
   5 Te2   x      -0.3700      0.0000      0.0000
           y       0.0000     -0.3700      0.0000
           z       0.0000      0.0000     -0.3700

  Elastic Constant Matrix: (Units=GPa)

[...]

  Elastic Compliance Matrix: (Units=1/GPa)

  Indices      1         2         3         4         5         6
       1    0.119015 -0.023100 -0.100809 -0.104800  0.011569 -0.038192
       2   -0.023100  0.010837  0.013901  0.036474 -0.007030  0.025625
       3   -0.100809  0.013901  0.095239  0.075819 -0.001005  0.016024
       4   -0.104800  0.036474  0.075819  0.141074 -0.024076  0.084789
       5    0.011569 -0.007030 -0.001005 -0.024076  0.011482 -0.020660
       6   -0.038192  0.025625  0.016024  0.084789 -0.020660  0.072025

 Mechanical properties :

  Convention :                    Reuss         Voigt         Hill
  Bulk  Modulus (GPa)     =     197.06901    1862.41029    1029.73965
  Shear Modulus (GPa)     =       7.44735     456.77069     232.10902
  Velocity S-wave (km/s)  =       1.20897       9.46815       6.74935
  Velocity P-wave (km/s)  =       6.37382      22.02374      16.21220
  Compressibility (1/GPa) =    0.00507436
  Stress axis :                     x             y             z
  Youngs Moduli (GPa)     =       8.40227      92.27786      10.49992
  Poissons Ratio (x)      =                     2.13164       1.05849
  Poissons Ratio (y)      =       0.19409                    -0.14596
  Poissons Ratio (z)      =       0.84703      -1.28277

  Piezoelectric Strain Matrix: (Units=C/m**2)

[...]

  Piezoelectric Stress Matrix: (Units=10**-11 C/N)

  Indices      1         2         3         4         5         6
       x   149.70622-131.23612 -31.83850-433.60440 119.27942-387.69980
       y    46.54148 -40.71820  -9.97390-134.56394  36.99864-120.25919
       z   145.33694-127.27437 -31.04294-420.56901 115.65444-375.95009

  Static dielectric constant tensor :

              x         y         z
       x  -222.19920 -69.21151-216.50054
       y   -69.21151 -20.33631 -67.09978
       z  -216.50054 -67.09978-208.78093

  Static refractive indices :

    1 =  -21.29660      2 =    1.05558      3 =    1.05569

  Time to end of optimisation =    2557.8319 seconds

  Timing analysis for GULP :

  Task / Subroutine                                          Time (Seconds)
  Calculation of reciprocal space energy and derivatives        147.1653
  Calculation of real space energy and derivatives             2313.3645
  Sum of squares for fitting                                     54.3233
  Global summation overhead                                       1.9881

  Dump file written as sb2te3.res

  **** GULP has completed with 149 warnings - beware! ****

  Job Finished at 16:43.37 23rd June       2010