  Job Started  at 17:17.25 22nd June       2010

  Number of CPUs =     1

  Total number of configurations input = 132

*  Input for Configuration =   1                                               *

  Formula = Sb2Te3

  Number of irreducible atoms/shells =       5

  Total number atoms/shells =       5

  Dimensionality = 3               :  Bulk

  Cartesian lattice vectors (Angstroms) :

       -2.504286    0.000000   10.443767
        1.252143   -2.168775   10.443767
        1.252143    2.168775   10.443767

  Cell parameters (Angstroms/Degrees):

  a =      10.7398    alpha =  23.3006
  b =      10.7398    beta  =  23.3006
  c =      10.7398    gamma =  23.3006

  Initial cell volume =         170.167643 Angs**3

  Temperature of configuration =  0.000     K

  Pressure of configuration =         0.000 GPa

  Fractional coordinates of asymmetric unit :

   No.  Atomic       x           y          z         Charge      Occupancy
        Label      (Frac)      (Frac)     (Frac)        (e)         (Frac)
      1 Sb    c    0.369021    0.369021    0.369021      0.6200    1.000000
      2 Sb    c    0.603203    0.603203    0.603203      0.6200    1.000000
      3 Te1   c    0.000000    0.000000    0.000000     -0.5000    1.000000
      4 Te2   c    0.784571    0.784571    0.784571     -0.3700    1.000000
      5 Te2   c    0.215429    0.215429    0.215429     -0.3700    1.000000

[...]

   No.  Atomic       x           y          z         Charge      Occupancy
        Label      (Frac)      (Frac)     (Frac)        (e)         (Frac)
      1 Sb    c    0.396797    0.396797    0.396797      0.6200    1.000000
      2 Sb    c    0.603203    0.603203    0.603203      0.6200    1.000000
      3 Te1   c    0.000000    0.000000    0.000000     -0.5000    1.000000
      4 Te2   c    0.784571    0.784571    0.784571     -0.3700    1.000000
      5 Te2   c    0.215429    0.215429    0.215429     -0.3700    1.000000

*  Input for Configuration = 132                                               *

  Formula = Sb2Te3

  Number of irreducible atoms/shells =       5

  Total number atoms/shells =       5

  Dimensionality = 3               :  Bulk

  Cartesian lattice vectors (Angstroms) :

[...]

  Cell parameters (Angstroms/Degrees):

  a =      10.7398    alpha =  23.3006
  b =      10.7398    beta  =  23.3006
  c =      10.7398    gamma =  23.3006

  Initial cell volume =         170.167643 Angs**3

  Temperature of configuration =  0.000     K

  Pressure of configuration =         0.000 GPa

  Fractional coordinates of asymmetric unit :

   No.  Atomic       x           y          z         Charge      Occupancy
        Label      (Frac)      (Frac)     (Frac)        (e)         (Frac)
      1 Sb    c    0.396797    0.396797    0.396797      0.6200    1.000000
      2 Sb    c    0.603203 *  0.603203 *  0.603203 *    0.6200    1.000000
      3 Te1   c    0.000000 *  0.000000 *  0.000000 *   -0.5000    1.000000
      4 Te2   c    0.784571 *  0.784571 *  0.784571 *   -0.3700    1.000000
      5 Te2   c    0.215429 *  0.215429 *  0.215429 *   -0.3700    1.000000

*  General input information                                                   *

  Species output for all configurations :

  Species    Type    Atomic    Atomic    Charge       Radii (Angs)     Library
                     Number     Mass       (e)     Cova   Ionic  VDW   Symbol
    Sb       Core       51     121.75     0.6200   1.460  0.000  2.170
    Te1      Core       52     127.60    -0.5000   1.470  0.000  2.200
    Te2      Core       52     127.60    -0.3700   1.470  0.000  2.200

  Lattice summation method               =    Ewald
  Accuracy factor for lattice sums       =    8.000

  Time limit = Infinity

  Maximum range for interatomic potentials =         8.000000 Angstroms

  Taper potentials to zero over   8.0000 Angstroms using Voter m =  20.0000

  General interatomic potentials :

Atom  Types   Potential         A         B         C         D     Cutoffs(Ang)
  1     2                                                            Min    Max
Sb   c Te2  c Morse         0.100      3.65     3.05     0.00       0.000 12.000
Sb   c Te1  c Morse         0.100      1.18     3.23     0.00       0.000 12.000
Sb   c Sb   c Morse         0.500E-01  1.00     4.34     0.00       0.000 12.000
Te1  c Te1  c Morse         0.730E-01  1.07     4.34     0.00       0.000 12.000
Te1  c Te2  c Morse         0.470E-01  1.07     4.47     0.00       0.000 12.000
Te2  c Te2  c Morse         0.740E-01  1.50     3.93     0.00       0.000 12.000

  Energy shifts for configurations :

      Configuration           Energy (eV)        Scale Factor
             1               -6.78000                 1.000
             2               -6.78000                 1.000
             3               -6.78000                 1.000
             4               -6.78000                 1.000
             5               -6.78000                 1.000
             6               -6.78000                 1.000
             7               -6.78000                 1.000
             8               -6.78000                 1.000
             9               -6.78000                 1.000
            10               -6.78000                 1.000
            11               -6.78000                 1.000
            12               -6.78000                 1.000
            13               -6.78000                 1.000
            14               -6.78000                 1.000
            15               -6.78000                 1.000
            16               -6.78000                 1.000
            17               -6.78000                 1.000
            18               -6.78000                 1.000
            19               -6.78000                 1.000
            20               -6.78000                 1.000
            21               -6.78000                 1.000
            22               -6.78000                 1.000
            23               -6.78000                 1.000
            24               -6.78000                 1.000
            25               -6.78000                 1.000
            26               -6.78000                 1.000
            27               -6.78000                 1.000
            28               -6.78000                 1.000
            29               -6.78000                 1.000
            30               -6.78000                 1.000
            31               -6.78000                 1.000
            32               -6.78000                 1.000
            33               -6.78000                 1.000
            34               -6.78000                 1.000
            35               -6.78000                 1.000
            36               -6.78000                 1.000
            37               -6.78000                 1.000
            38               -6.78000                 1.000
            39               -6.78000                 1.000
            40               -6.78000                 1.000
            41               -6.78000                 1.000
            42               -6.78000                 1.000
            43               -6.78000                 1.000
            44               -6.78000                 1.000
            45               -6.78000                 1.000
            46               -6.78000                 1.000
            47               -6.78000                 1.000
            48               -6.78000                 1.000
            49               -6.78000                 1.000
            50               -6.78000                 1.000
            51               -6.78000                 1.000
            52               -6.78000                 1.000
            53               -6.78000                 1.000
            54               -6.78000                 1.000
            55               -6.78000                 1.000
            56               -6.78000                 1.000
            57               -6.78000                 1.000
            58               -6.78000                 1.000
            59               -6.78000                 1.000
            60               -6.78000                 1.000
[...]
           118               -6.78000                 1.000
           119               -6.78000                 1.000
           120               -6.78000                 1.000
           121               -6.78000                 1.000
           122               -6.78000                 1.000
           123               -6.78000                 1.000
           124               -6.78000                 1.000
           125               -6.78000                 1.000
           126               -6.78000                 1.000
           127               -6.78000                 1.000
           128               -6.78000                 1.000
           129               -6.78000                 1.000
           130               -6.78000                 1.000
           131               -6.78000                 1.000
           132               -6.78000                 1.000

  Number of variables   =   19
  Number of observables =  149

   Observable no.  Type           Observable    Weight       Reference  Confign
          1        Energy          -16.066600        0.0000                1
          2        Energy          -16.584500        0.0000                2
          3        Energy          -17.060200        0.0000                3
          4        Energy          -17.480900        0.0000                4
          5        Energy          -17.831400        0.2000                5
          6        Energy          -18.095000        0.5000                6
          7        Energy          -18.258200        0.5000                7
          8        Energy          -18.313000        1.0000                8
          9        Energy          -18.257900        0.5000                9
         10        Energy          -18.096800        0.5000               10
         11        Energy          -17.838700        0.2000               11
         12        Energy          -17.496800        0.0000               12
         13        Energy          -17.088900        0.0000               13
         14        Energy          -16.635400        0.0000               14
         15        Energy          -16.162800        0.0000               15
         16        Energy          -14.700000        0.0000               16
         17        Energy          -15.230000        0.0000               17
         18        Energy          -15.880000        0.0000               18
         19        Energy          -16.600000        0.0000               19
         20        Energy          -17.270000        0.2000               20
         21        Energy          -17.830000        0.5000               21
         22        Energy          -18.190000        0.5000               22
         23        Energy          -18.310000        1.0000               23
         24        Energy          -18.190000        0.5000               24
[...]
        147        Derivative         0.00000     -4.79040     -0.47283
        148        Derivative         0.00000     -4.79040     -0.47283
        149        Derivative         0.00000     -4.79040     -0.47283

  Maximum range for interatomic potentials =         8.000000 Angstroms

  Taper potentials to zero over   8.0000 Angstroms using Voter m =  20.0000

  General interatomic potentials :

Atom  Types   Potential         A         B         C         D     Cutoffs(Ang)
  1     2                                                            Min    Max
Sb   c Te2  c Morse         0.529E-01  2.56     3.13     0.00       0.000 12.000
Sb   c Te1  c Morse         0.289      1.55     2.82     0.00       0.000 12.000
Sb   c Sb   c Morse         -.514E-02 0.616     4.03     0.00       0.000 12.000
Te1  c Te1  c Morse         0.458E-01  1.08     4.35     0.00       0.000 12.000
Te1  c Te2  c Morse         -.130      2.13     2.01     0.00       0.000 12.000
Te2  c Te2  c Morse         -.319E-01  1.34     4.46     0.00       0.000 12.000

  Energy shifts for configurations :

      Configuration           Energy (eV)        Scale Factor
             1               -11.8989                 1.000
             2               -11.8989                 1.000
             3               -11.8989                 1.000
             4               -11.8989                 1.000
             5               -11.8989                 1.000
             6               -11.8989                 1.000
             7               -11.8989                 1.000
             8               -11.8989                 1.000
             9               -11.8989                 1.000
            10               -11.8989                 1.000
            11               -11.8989                 1.000
            12               -11.8989                 1.000
            13               -11.8989                 1.000
            14               -11.8989                 1.000
            15               -11.8989                 1.000
            16               -11.8989                 1.000
            17               -11.8989                 1.000
            18               -11.8989                 1.000
            19               -11.8989                 1.000
            20               -11.8989                 1.000
            21               -11.8989                 1.000
            22               -11.8989                 1.000
            23               -11.8989                 1.000
            24               -11.8989                 1.000
            25               -11.8989                 1.000
            26               -11.8989                 1.000
            27               -11.8989                 1.000
            28               -11.8989                 1.000
            29               -11.8989                 1.000
            30               -11.8989                 1.000
            31               -11.8989                 1.000
            32               -11.8989                 1.000
            33               -11.8989                 1.000
            34               -11.8989                 1.000
            35               -11.8989                 1.000
            36               -11.8989                 1.000
            37               -11.8989                 1.000
            38               -11.8989                 1.000
            39               -11.8989                 1.000
            40               -11.8989                 1.000
            41               -11.8989                 1.000
            42               -11.8989                 1.000
            43               -11.8989                 1.000
            44               -11.8989                 1.000
            45               -11.8989                 1.000
            46               -11.8989                 1.000
            47               -11.8989                 1.000
            48               -11.8989                 1.000
            49               -11.8989                 1.000
            50               -11.8989                 1.000
            51               -11.8989                 1.000
            52               -11.8989                 1.000
            53               -11.8989                 1.000
            54               -11.8989                 1.000
            55               -11.8989                 1.000
            56               -11.8989                 1.000
            57               -11.8989                 1.000
            58               -11.8989                 1.000
            59               -11.8989                 1.000
            60               -11.8989                 1.000
[...]
           118               -11.8989                 1.000
           119               -11.8989                 1.000
           120               -11.8989                 1.000
           121               -11.8989                 1.000
           122               -11.8989                 1.000
           123               -11.8989                 1.000
           124               -11.8989                 1.000
           125               -11.8989                 1.000
           126               -11.8989                 1.000
           127               -11.8989                 1.000
           128               -11.8989                 1.000
           129               -11.8989                 1.000
           130               -11.8989                 1.000
           131               -11.8989                 1.000
           132               -11.8989                 1.000

  Total time to end of fitting =     747.1347 seconds

*  Output for configuration   1                                                *

!! WARNING : No variables to optimise - single point performed

  Components of energy :

  Interatomic potentials     =          -1.73860383 eV
  Monopole - monopole (real) =          -1.17953623 eV
  Monopole - monopole (recip)=          -3.08937235 eV
  Monopole - monopole (total)=          -4.26890857 eV
  Energy shift               =         -11.89892981 eV
  Total lattice energy       =         -17.90644222 eV
  Total lattice energy       =           -1727.6979 kJ/(mole unit cells)

  Born effective charge tensors :

  Atom             x           y             z
   1 Sb    x       0.6200      0.0000      0.0000
           y       0.0000      0.6200      0.0000
           z       0.0000      0.0000      0.6200
   2 Sb    x       0.6200      0.0000      0.0000
           y       0.0000      0.6200      0.0000
           z       0.0000      0.0000      0.6200
   3 Te1   x      -0.5000      0.0000      0.0000
           y       0.0000     -0.5000      0.0000
           z       0.0000      0.0000     -0.5000
   4 Te2   x      -0.3700      0.0000      0.0000
           y       0.0000     -0.3700      0.0000
           z       0.0000      0.0000     -0.3700
   5 Te2   x      -0.3700      0.0000      0.0000
           y       0.0000     -0.3700      0.0000
           z       0.0000      0.0000     -0.3700

  Elastic Constant Matrix: (Units=GPa)

  Indices      1         2         3         4         5         6
       1    -31.4518  -29.5277  -36.0858   -0.0000   -4.3254   -0.0000
       2    -29.5277  -31.4518  -36.0858   -0.0000    4.3254   -0.0000
       3    -36.0858  -36.0858  -25.5873   -0.0000    0.0000    0.0000
       4     -0.0000   -0.0000   -0.0000  -10.7876    0.0000    4.3254
       5     -4.3254    4.3254    0.0000    0.0000  -10.7876    0.0000
       6     -0.0000   -0.0000    0.0000    4.3254    0.0000   -0.9620

  Elastic Compliance Matrix: (Units=1/GPa)

[...]

 Mechanical properties :

  Convention :                    Reuss         Voigt         Hill
  Bulk  Modulus (GPa)     =     -32.43547     -32.43215     -32.43381
  Shear Modulus (GPa)     =       1.66270      -3.62688      -0.98209
  Velocity S-wave (km/s)  =       1.64940      -2.43605      -1.26764
  Velocity P-wave (km/s)  =       7.03163       7.80885       7.43041
  Compressibility (1/GPa) =   -0.03083044
  Stress axis :                     x             y             z
  Youngs Moduli (GPa)     =       2.97636       2.97636      17.12159
  Poissons Ratio (x)      =                     0.92706       0.59177
  Poissons Ratio (y)      =       0.92706                     0.59177
  Poissons Ratio (z)      =       0.10287       0.10287

  Piezoelectric Strain Matrix: (Units=C/m**2)

  Indices      1         2         3         4         5         6
       x    -2.55731   2.55731  -0.00000   0.00000  -4.53484  -0.00000
       y     0.00000   0.00000  -0.00000  -4.53484   0.00000   2.55731
       z   -10.18626 -10.18626 -11.00152  -0.00000  -0.00000  -0.00000

  Piezoelectric Stress Matrix: (Units=10**-11 C/N)

[...]

  Static dielectric constant tensor :

              x         y         z
       x     1.27835  -0.00000   0.00000
       y    -0.00000   1.27835   0.00000
       z     0.00000   0.00000   2.78292

  Static refractive indices :

    1 =    1.13064      2 =    1.13064      3 =    1.66821

  Time to end of properties =     747.1387 seconds

[...]

!! WARNING : No variables to optimise - single point performed

[...]

  Time to end of properties =     747.4547 seconds

*  Output for configuration 132                                                *

[...]

  Number of variables =     18

  Maximum number of calculations  =          1000
  Maximum Hessian update interval =            10
  Maximum step size               =   1.000000000
  Maximum parameter tolerance     =   0.000010000
  Maximum function  tolerance     =   0.000010000
  Maximum gradient  tolerance     =   0.001000000
  Maximum gradient  component     =   0.010000000

  Symmetry not applied to optimisation

  Cell parameters to be optimised using strains

  Newton-Raphson optimiser to be used

  BFGS hessian update to be used

  Dumpfile to be written after every cycle

  Start of bulk optimisation :

  ** Hessian calculated **
  ** Hessian calculated **
  ** Hessian calculated **
  ** Hessian calculated **
  ** Hessian calculated **
  ** Hessian calculated **
  ** Hessian calculated **
  ** Hessian calculated **
  ** Hessian calculated **
  ** Hessian calculated **
  ** Hessian calculated **
  ** Hessian calculated **
  ** Hessian calculated **
  ** Hessian calculated **
  ** Hessian calculated **
  ** Hessian calculated **
  ** Hessian calculated **
  ** Hessian calculated **
  ** Hessian calculated **
  ** Hessian calculated **
  ** Hessian calculated **
  ** Hessian calculated **
  ** Hessian calculated **
  ** Hessian calculated **

  **** Conditions for a minimum have not been satisfied. However ****
  **** no lower point can be found - treat results with caution  ****
  **** unless gradient norm is small (less than 0.1)             ****

  Final energy =    -240.14385729 eV
  Final Gnorm  =     238.78450865

  Components of energy :

  Interatomic potentials     =        -223.94291580 eV
  Monopole - monopole (real) =          -1.01271757 eV
  Monopole - monopole (recip)=          -3.28929410 eV
  Monopole - monopole (total)=          -4.30201167 eV
  Energy shift               =         -11.89892981 eV
  Total lattice energy       =        -240.14385729 eV
  Total lattice energy       =          -23170.2113 kJ/(mole unit cells)

  Final fractional coordinates of atoms :

   No.  Atomic        x           y          z          Radius
        Label       (Frac)      (Frac)     (Frac)       (Angs)
     1  Sb    c     0.396797    0.396797    0.396797    0.000000
     2  Sb    c     0.640183    0.640183    0.640183    0.000000
     3  Te1   c     0.023753    0.023753    0.023753    0.000000
     4  Te2   c     0.804626    0.804626    0.804626    0.000000
     5  Te2   c     0.156508    0.156508    0.156508    0.000000

  Final Cartesian lattice vectors (Angstroms) :

       -1.412196   -0.000000    6.377249
        0.706098   -1.222998    6.377249
        0.706098    1.222998    6.377249

  Final cell parameters and derivatives :

       a            6.531738 Angstrom     dE/de1(xx)   419.504507 eV/strain
       b            6.531738 Angstrom     dE/de2(yy)   419.504519 eV/strain
       c            6.531738 Angstrom     dE/de3(zz)  -309.679761 eV/strain
       alpha       21.583426 Degrees      dE/de4(yz)    -0.000000 eV/strain
       beta        21.583426 Degrees      dE/de5(xz)     0.000009 eV/strain
       gamma       21.583426 Degrees      dE/de6(xy)    -0.000000 eV/strain

  Primitive cell volume =            33.042685 Angs**3

  Density of cell =     31.474808 g/cm**3

  Non-primitive cell volume =            33.042685 Angs**3

  Final internal derivatives :

   No.  Atomic          x             y             z           Radius
        Label          (eV)          (eV)          (eV)        (eV/Angs)
      1 Sb    c       0.000000      0.000000      0.000000      0.000000
      2 Sb    c     248.332693    248.332687    248.332687      0.000000
      3 Te1   c      65.493767     65.493766     65.493766      0.000000
      4 Te2   c   -2256.634602  -2256.634508  -2256.634508      0.000000
      5 Te2   c     922.117510    922.117437    922.117437      0.000000
  Maximum abs      2256.634602   2256.634508   2256.634508      0.000000

  Born effective charge tensors :

  Atom             x           y             z
   1 Sb    x       0.6200      0.0000      0.0000
           y       0.0000      0.6200      0.0000
           z       0.0000      0.0000      0.6200
   2 Sb    x       0.6200      0.0000      0.0000
           y       0.0000      0.6200      0.0000
           z       0.0000      0.0000      0.6200
   3 Te1   x      -0.5000      0.0000      0.0000
           y       0.0000     -0.5000      0.0000
           z       0.0000      0.0000     -0.5000
   4 Te2   x      -0.3700      0.0000      0.0000
           y       0.0000     -0.3700      0.0000
           z       0.0000      0.0000     -0.3700
   5 Te2   x      -0.3700      0.0000      0.0000
           y       0.0000     -0.3700      0.0000
           z       0.0000      0.0000     -0.3700

  Elastic Constant Matrix: (Units=GPa)

[...]

  Elastic Compliance Matrix: (Units=1/GPa)

  Indices      1         2         3         4         5         6
       1    0.000064 -0.000081  0.000109  0.000000 -0.000001  0.000000
       2   -0.000081  0.000064  0.000109  0.000000  0.000001 -0.000000
       3    0.000109  0.000109  0.000817  0.000000 -0.000000 -0.000000
       4    0.000000  0.000000  0.000000  0.000559  0.000000  0.000002
       5   -0.000001  0.000001 -0.000000  0.000000  0.000559 -0.000000
       6    0.000000 -0.000000 -0.000000  0.000002 -0.000000  0.000290

 Mechanical properties :

  Convention :                    Reuss         Voigt         Hill
  Bulk  Modulus (GPa)     =     821.69873   -3480.08797   -1329.19462
  Shear Modulus (GPa)     =    2010.80216    1018.54784    1514.67500
  Velocity S-wave (km/s)  =      25.27570      17.98909      21.93705
  Velocity P-wave (km/s)  =      33.35986      25.96532      14.81017
  Compressibility (1/GPa) =    0.00121699
  Stress axis :                     x             y             z
  Youngs Moduli (GPa)     =   15649.86241   15649.85884    1224.39294
  Poissons Ratio (x)      =                     1.27003      -0.13308
  Poissons Ratio (y)      =       1.27004                    -0.13308
  Poissons Ratio (z)      =      -1.70102      -1.70102

  Piezoelectric Strain Matrix: (Units=C/m**2)

[...]

  Piezoelectric Stress Matrix: (Units=10**-11 C/N)

  Indices      1         2         3         4         5         6
       x     0.15288  -0.15288  -0.00000   0.00000   0.63243   0.00000
       y     0.00000   0.00000   0.00000   0.63243   0.00000  -0.30576
       z     0.04939   0.04939   0.80643   0.00000  -0.00000  -0.00000

  Static dielectric constant tensor :

              x         y         z
       x     1.05087   0.00000   0.00000
       y     0.00000   1.05087  -0.00000
       z     0.00000  -0.00000   1.05118

  Static refractive indices :

    1 =    1.02512      2 =    1.02512      3 =    1.02527

  Time to end of optimisation =     748.6308 seconds

  Timing analysis for GULP :

  Task / Subroutine                                          Time (Seconds)
  Calculation of reciprocal space energy and derivatives         49.4631
  Calculation of real space energy and derivatives              674.0621
  Sum of squares for fitting                                     18.8652
  Global summation overhead                                       0.7440

  Dump file written as sb2te3.res

  **** GULP has completed with 131 warnings - beware! ****

  Job Finished at 17:29.55 22nd June       2010