  Job Started  at 13:43.38 28th May        2010

  Number of CPUs =     1

  Total number of configurations input =  59

*  Input for Configuration =   1                                               *

  Formula = GeTe

  Number of irreducible atoms/shells =       4

  Total number atoms/shells =       4

  Dimensionality = 3               :  Bulk

  Cartesian lattice vectors (Angstroms) :

        0.116746    3.103956    3.103956
        3.103956    0.116746    3.103956
        3.103956    3.103956    0.116746

  Cell parameters (Angstroms/Degrees):

  a =       4.3912    alpha =  57.5046
  b =       4.3912    beta  =  57.5046
  c =       4.3912    gamma =  57.5046

  Initial cell volume =          56.437602 Angs**3

  Temperature of configuration =  0.000     K

  Pressure of configuration =         0.000 GPa

  Fractional coordinates of asymmetric unit :

   No.  Atomic       x           y          z         Charge      Occupancy
        Label      (Frac)      (Frac)     (Frac)        (e)         (Frac)
      1 Ge    c    0.998439    0.998439    0.998439     -0.2000    1.000000
      2 Te    c    0.445182    0.445182    0.445182     -2.1000    1.000000
      3 Ge    s    0.998439    0.998439    0.998439      2.2000    1.000000
      4 Te    s    0.445182    0.445182    0.445182      0.1000    1.000000

[...]

*  Input for Configuration =  59                                               *

  Formula = GeTe

  Number of irreducible atoms/shells =       4

  Total number atoms/shells =       4

  Dimensionality = 3               :  Bulk

  Cartesian lattice vectors (Angstroms) :

        4.390000    0.000000    0.000000
        2.345807    3.710699    0.000000
        2.345807    1.292285    3.478403

  Cell parameters (Angstroms/Degrees):

  a =       4.3900    alpha =  57.7000
  b =       4.3900    beta  =  57.7000
  c =       4.3900    gamma =  57.7000

  Initial cell volume =          56.663086 Angs**3

  Temperature of configuration =  0.000     K

  Pressure of configuration =         0.000 GPa

  Fractional coordinates of asymmetric unit :

   No.  Atomic       x           y          z         Charge      Occupancy
        Label      (Frac)      (Frac)     (Frac)        (e)         (Frac)
      1 Ge    c    0.000000    0.000000    0.000000     -0.2000    1.000000
      2 Te    c    0.475000    0.475000    0.475000     -2.1000    1.000000
      3 Ge    s    0.000000    0.000000    0.000000      2.2000    1.000000
      4 Te    s    0.475000    0.475000    0.475000      0.1000    1.000000

*  General input information                                                   *

  Species output for all configurations :

  Species    Type    Atomic    Atomic    Charge       Radii (Angs)     Library
                     Number     Mass       (e)     Cova   Ionic  VDW   Symbol
    Ge       Core       32      72.61    -0.2000   1.170  0.000  1.750
    Ge       Shell      32       0.00     2.2000   1.170  0.000  1.750
    Te       Core       52     127.60    -2.1000   1.470  0.000  2.200
    Te       Shell      52       0.00     0.1000   1.470  0.000  2.200

  Lattice summation method               =    Ewald
  Accuracy factor for lattice sums       =    8.000

  Time limit = Infinity

!! WARNING : potential   4 is acting on the core of an ion with a shell

  Maximum range for interatomic potentials =         8.000000 Angstroms

  Taper potentials to zero over   8.0000 Angstroms using Voter m =  20.0000

  General interatomic potentials :

Atom  Types   Potential         A         B         C         D     Cutoffs(Ang)
  1     2                                                            Min    Max
Te   s Te   s Morse         0.600E-01 0.930     4.49     0.00       0.000 12.000
Te   s Te   s CovExp        0.500E-01  85.0     4.25     0.00       0.000 12.000
Ge   s Te   s Morse          1.03     0.789     3.18     0.00       0.000 12.000
Ge   c Te   s CovExp        0.703      220.     2.84     0.00       0.000 12.000
Ge   c Ge   s Spring (c-s)   10.0      0.00     0.00     0.00       0.000  0.600
Te   c Te   s Spring (c-s)   8.00      0.00     0.00     0.00       0.000  0.600

  Energy shifts for configurations :

      Configuration           Energy (eV)        Scale Factor
             1                22.0000                 1.000
             2                22.0000                 1.000
             3                22.0000                 1.000
             4                22.0000                 1.000
             5                22.0000                 1.000
             6                22.0000                 1.000
             7                22.0000                 1.000
             8                22.0000                 1.000
             9                22.0000                 1.000
            10                22.0000                 1.000
            11                22.0000                 1.000
            12                22.0000                 1.000
            13                22.0000                 1.000
            14                22.0000                 1.000
            15                22.0000                 1.000
            16                22.0000                 1.000
            17                22.0000                 1.000
            18                22.0000                 1.000
            19                22.0000                 1.000
            20                22.0000                 1.000
            21                22.0000                 1.000
            22                22.0000                 1.000
            23                22.0000                 1.000
            24                22.0000                 1.000
            25                22.0000                 1.000
            26                22.0000                 1.000
            27                22.0000                 1.000
            28                22.0000                 1.000
            29                22.0000                 1.000
            30                22.0000                 1.000
            31                22.0000                 1.000
            32                22.0000                 1.000
            33                22.0000                 1.000
            34                22.0000                 1.000
            35                22.0000                 1.000
            36                22.0000                 1.000
            37                22.0000                 1.000
            38                22.0000                 1.000
            39                22.0000                 1.000
            40                22.0000                 1.000
            41                22.0000                 1.000
            42                22.0000                 1.000
            43                22.0000                 1.000
            44                22.0000                 1.000
            45                22.0000                 1.000
            46                22.0000                 1.000
            47                22.0000                 1.000
            48                22.0000                 1.000
            49                22.0000                 1.000
            50                22.0000                 1.000
            51                22.0000                 1.000
            52                22.0000                 1.000
            53                22.0000                 1.000
            54                22.0000                 1.000
            55                22.0000                 1.000
            56                22.0000                 1.000
            57                22.0000                 1.000
            58                22.0000                 1.000
            59                22.0000                 1.000

  Number of variables   =   16
  Number of observables =   77

   Observable no.  Type           Observable    Weight       Reference  Confign
          1        Energy           -7.846643        2.0000                1
          2        Energy           -7.907598        2.0000                2
          3        Energy           -7.941913        2.0000                3
          4        Energy           -7.952505        2.0000                4
          5        Energy           -7.944038        2.0000                5
          6        Energy           -7.922940        2.0000                6
          7        Energy           -7.897265        2.0000                7
          8        Energy           -7.876618        2.0000                8
          9        Energy           -7.868904        2.0000                9
         10        Energy           -7.876182        2.0000               10
         11        Energy           -7.896511        2.0000               11
         12        Energy           -7.922184        2.0000               12
         13        Energy           -7.943547        2.0000               13
         14        Energy           -7.952500        2.0000               14
         15        Energy           -7.952500        1.0000               14
         16        Energy           -7.942563        2.0000               15
         17        Energy           -7.909019        2.0000               16
         18        Energy           -7.848898        2.0000               17
         19        Energy           -7.062700        1.0000               18
         20        Energy           -7.298900        1.0000               19
         21        Energy           -7.418200        1.0000               20
         22        Energy           -7.443900        1.0000               21
         23        Energy           -7.385800        1.0000               22
         24        Energy           -7.261300        1.0000               23
         25        Energy           -7.085200        1.0000               24
         26        Energy           -7.619300        1.0000               25
         27        Energy           -7.870900        1.0000               26
         28        Energy           -7.951900        1.0000               27
         29        Energy           -7.905600        1.0000               28
         30        Energy           -7.773500        1.0000               29
         31        Energy           -7.562800        1.0000               30
         32        Energy           -7.500688        0.1000               31
         33        Energy           -7.570322        0.1000               32
         34        Energy           -7.631120        0.1000               33
         35        Energy           -7.674601        0.1000               34
         36        Energy           -7.697064        0.1000               35
         37        Energy           -7.697923        0.1000               36
         38        Energy           -7.678625        0.1000               37
         39        Energy           -7.641835        0.1000               38
         40        Energy           -7.591007        0.1000               39
         41        Energy           -7.534396        0.1000               40
         42        Energy           -7.212400        1.0000               41
[...]
          2        Energy            -7.90760    -23.10060     -8.31671
          3        Energy            -7.94191    -23.31281     -8.26930
          4        Energy            -7.95251    -23.35440     -8.22792
          5        Energy            -7.94404    -23.18830     -8.19318
          6        Energy            -7.92294    -22.85304     -8.16558
          7        Energy            -7.89727    -22.45810     -8.14553
          8        Energy            -7.87662    -22.14272     -8.13333
          9        Energy            -7.86890    -22.02059     -8.12917
         10        Energy            -7.87618    -22.13577     -8.13309
         11        Energy            -7.89651    -22.44664     -8.14505
         12        Energy            -7.92218    -22.84129     -8.16486
         13        Energy            -7.94355    -23.18021     -8.19223
         14        Energy            -7.95250    -23.35243     -8.22677
         15        Energy            -7.95250    -23.35243     -8.22677
         16        Energy            -7.94256    -23.31693     -8.26795
         17        Energy            -7.90902    -23.10879     -8.31519
         18        Energy            -7.84890    -22.80979     -8.36777
         19        Energy            -7.06270    -22.19275     -7.27065
         20        Energy            -7.29890    -21.14989     -6.18915
         21        Energy            -7.41820    -19.43331     -5.17497
         22        Energy            -7.44390    -17.50504     -4.21730
         23        Energy            -7.38580    -15.74853     -3.31327
         24        Energy            -7.26130    -14.28599     -2.46605
         25        Energy            -7.08520    -13.09208     -1.67562
         26        Energy            -7.61930    -25.23235    -10.86452
         27        Energy            -7.87090    -24.41135     -9.54512
         28        Energy            -7.95190    -23.36303     -8.23707
         29        Energy            -7.90560    -21.37208     -6.96741
         30        Energy            -7.77350    -18.96569     -5.74508
         31        Energy            -7.56280    -16.94153     -4.61421
         32        Energy            -7.50069    -18.52618     -4.92618
         33        Energy            -7.57032    -18.80769     -5.13491
         34        Energy            -7.63112    -19.20456     -5.36741
         35        Energy            -7.67460    -19.08694     -5.66165
         36        Energy            -7.69706    -19.43710     -5.97846
         37        Energy            -7.69792    -20.31558     -6.08550
         38        Energy            -7.67863    -20.58752     -6.33937
         39        Energy            -7.64184    -20.28424     -7.06555
         40        Energy            -7.59101    -20.48793     -7.28116
         41        Energy            -7.53440    -20.78833     -7.25869
         42        Energy            -7.21240    -22.69596     -9.46831
         43        Energy            -7.24790    -21.97265     -8.99973
         44        Energy            -7.26580    -21.34368     -8.54576
         45        Energy            -7.26780    -20.77383     -8.10380
         46        Energy            -7.25490    -20.23540     -7.66945
         47        Energy            -7.22860    -19.71644     -7.24354
         48        Energy            -7.19030    -19.21036     -6.82639
         49        Energy            -7.89317    -21.97916     -7.26345
         50        Energy            -7.92090    -22.55902     -7.64918
         51        Energy            -7.93656    -23.06247     -8.00611
         52        Energy            -7.93851    -23.57460     -8.46314
         53        Energy            -7.92021    -23.56744     -8.68955
         54        Energy            -7.90920    -23.41572     -8.72990
         55        Energy            -7.92021    -23.56966     -8.69054
         56        Energy            -7.93850    -23.56468     -8.45719
         57        Energy            -7.93655    -23.06648     -8.00939
         58        Energy            -7.92089    -22.58833     -7.67780
         59        Energy            -7.89318    -21.98013     -7.26317
         60        Energy            -7.93851    -23.01734     -8.13082
         61        Elastic Const     77.55000    623.92208     59.52171
         62        Elastic Const     32.07000     60.27010     -7.18477
         63        Elastic Const     22.90000     94.98773    -21.94882
         64        Elastic Const     45.61000    313.54105     71.87347
         65        Elastic Const     22.74000    150.19593     25.08391
         66        Born charge        5.07000      3.38335      4.55408
         67        Born charge        5.04000      3.37303      4.50781
         68        Born charge        2.77000      3.42922      4.75963
         69        Born charge       -5.10000     -3.38335     -4.55408
         70        Born charge       -5.06000     -3.37303     -4.50781
         71        Born charge       -2.76000     -3.42922     -4.75963
         72        High Freq DiC      0.91300      3.13461      9.40366
         73        High Freq DiC      0.91300      3.09350      9.20996
         74        High Freq DiC      0.90700      3.08424      9.16637
         75        Static Di C       36.33400    -46.06309     -4.13552
         76        Static Di C       36.33400    -72.35440     -4.42606
         77        Static Di C       34.38700    -78.27235     -4.49146

  Maximum range for interatomic potentials =         8.000000 Angstroms

  Taper potentials to zero over   8.0000 Angstroms using Voter m =  20.0000

  General interatomic potentials :

Atom  Types   Potential         A         B         C         D     Cutoffs(Ang)
  1     2                                                            Min    Max
Te   s Te   s Morse         0.813E-01 0.904     4.54     0.00       0.000 12.000
Te   s Te   s CovExp        0.339E-01  104.     6.05     0.00       0.000 12.000
Ge   s Te   s Morse          1.05     0.805     2.85     0.00       0.000 12.000
Ge   c Te   s CovExp        0.169      241.     .859     0.00       0.000 12.000
Ge   c Ge   s Spring (c-s)   5.89      0.00     0.00     0.00       0.000  0.600
Te   c Te   s Spring (c-s)   7.43      0.00     0.00     0.00       0.000  0.600

  Energy shifts for configurations :

      Configuration           Energy (eV)        Scale Factor
             1                22.3298                 1.000
             2                22.3298                 1.000
             3                22.3298                 1.000
             4                22.3298                 1.000
             5                22.3298                 1.000
             6                22.3298                 1.000
             7                22.3298                 1.000
             8                22.3298                 1.000
             9                22.3298                 1.000
            10                22.3298                 1.000
            11                22.3298                 1.000
            12                22.3298                 1.000
            13                22.3298                 1.000
            14                22.3298                 1.000
            15                22.3298                 1.000
            16                22.3298                 1.000
            17                22.3298                 1.000
            18                22.3298                 1.000
            19                22.3298                 1.000
            20                22.3298                 1.000
            21                22.3298                 1.000
            22                22.3298                 1.000
            23                22.3298                 1.000
            24                22.3298                 1.000
            25                22.3298                 1.000
            26                22.3298                 1.000
            27                22.3298                 1.000
            28                22.3298                 1.000
            29                22.3298                 1.000
            30                22.3298                 1.000
            31                22.3298                 1.000
            32                22.3298                 1.000
            33                22.3298                 1.000
            34                22.3298                 1.000
            35                22.3298                 1.000
            36                22.3298                 1.000
            37                22.3298                 1.000
            38                22.3298                 1.000
            39                22.3298                 1.000
            40                22.3298                 1.000
            41                22.3298                 1.000
            42                22.3298                 1.000
            43                22.3298                 1.000
            44                22.3298                 1.000
            45                22.3298                 1.000
            46                22.3298                 1.000
            47                22.3298                 1.000
            48                22.3298                 1.000
            49                22.3298                 1.000
            50                22.3298                 1.000
            51                22.3298                 1.000
            52                22.3298                 1.000
            53                22.3298                 1.000
            54                22.3298                 1.000
            55                22.3298                 1.000
            56                22.3298                 1.000
            57                22.3298                 1.000
            58                22.3298                 1.000
            59                22.3298                 1.000

  Total time to end of fitting =     257.5081 seconds

*  Output for configuration   1                                                *

!! WARNING : No variables to optimise - single point performed

  Components of energy :

  Interatomic potentials     =          -9.11624434 eV
  Monopole - monopole (real) =          -2.02763872 eV
  Monopole - monopole (recip)=         -19.55538346 eV
  Monopole - monopole (total)=         -21.58302218 eV
  Energy shift               =          22.32982286 eV
  Total lattice energy       =          -8.36944366 eV
  Total lattice energy       =            -807.5234 kJ/(mole unit cells)

  Born effective charge tensors :

  Atom             x           y             z
   1 Ge    x       4.9343     -0.9981     -0.9981
           y      -0.9981      4.9343     -0.9981
           z      -0.9981     -0.9981      4.9343
   2 Te    x      -4.9343      0.9981      0.9981
           y       0.9981     -4.9343      0.9981
           z       0.9981      0.9981     -4.9343

  Elastic Constant Matrix: (Units=GPa)

  Indices      1         2         3         4         5         6
       1     32.4920   -0.3314   -0.3314    9.3962   -0.2681   -0.2681
       2     -0.3314   32.4920   -0.3314   -0.2681    9.3962   -0.2681
       3     -0.3314   -0.3314   32.4920   -0.2681   -0.2681    9.3962
       4      9.3962   -0.2681   -0.2681   57.3532    9.7740    9.7740
       5     -0.2681    9.3962   -0.2681    9.7740   57.3532    9.7740
       6     -0.2681   -0.2681    9.3962    9.7740    9.7740   57.3532

  Elastic Compliance Matrix: (Units=1/GPa)

[...]

 Mechanical properties :

  Convention :                    Reuss         Voigt         Hill
  Bulk  Modulus (GPa)     =      10.26946      10.60972      10.43959
  Shear Modulus (GPa)     =      26.62980      40.97657      33.80319
  Velocity S-wave (km/s)  =       6.72353       8.34029       7.57517
  Velocity P-wave (km/s)  =       8.81519      10.52416       9.70736
  Compressibility (1/GPa) =    0.09737608
  Stress axis :                     x             y             z
  Youngs Moduli (GPa)     =      30.84304      30.84304      30.84304
  Poissons Ratio (x)      =                    -0.00056      -0.00056
  Poissons Ratio (y)      =      -0.00056                    -0.00056
  Poissons Ratio (z)      =      -0.00056      -0.00056

  Piezoelectric Strain Matrix: (Units=C/m**2)

  Indices      1         2         3         4         5         6
       x     4.07838  -5.52461  -5.52461  -2.63074  -8.60592  -8.60592
       y    -5.52461   4.07838  -5.52461  -8.60592  -2.63074  -8.60592
       z    -5.52461  -5.52461   4.07838  -8.60592  -8.60592  -2.63074

  Piezoelectric Stress Matrix: (Units=10**-11 C/N)

[...]

  Static dielectric constant tensor :

              x         y         z
       x    -4.90298  -1.09143  -1.09143
       y    -1.09143  -4.90298  -1.09143
       z    -1.09143  -1.09143  -4.90298

  High frequency dielectric constant tensor :

[...]

  Static refractive indices :

    1 =   -2.66192      2 =   -1.95232      3 =   -1.95232

  High frequency refractive indices :

[...]

  Time to end of properties =     257.5081 seconds

[...]

*  Output for configuration  59                                                *

!! WARNING : No variables to optimise - single point performed

  Components of energy :

  Interatomic potentials     =          -9.28427103 eV
  Monopole - monopole (real) =          -1.76168690 eV
  Monopole - monopole (recip)=         -19.41468253 eV
  Monopole - monopole (total)=         -21.17636944 eV
  Energy shift               =          22.32982286 eV
  Total lattice energy       =          -8.13081761 eV
  Total lattice energy       =            -784.4996 kJ/(mole unit cells)

  Born effective charge tensors :

  Atom             x           y             z
   1 Ge    x       4.7596      0.1626      0.1130
           y       0.1626      4.5541      0.0623
           z       0.1130      0.0623      4.5078
   2 Te    x      -4.7596     -0.1626     -0.1130
           y      -0.1626     -4.5541     -0.0623
           z      -0.1130     -0.0623     -4.5078

  Elastic Constant Matrix: (Units=GPa)

[...]

  Elastic Compliance Matrix: (Units=1/GPa)

  Indices      1         2         3         4         5         6
       1    0.027027 -0.000949  0.007020 -0.021450 -0.002368 -0.003405
       2   -0.000949  0.026392  0.007748  0.019627 -0.000943  0.004411
       3    0.007020  0.007748  0.018443  0.001767  0.003208 -0.001152
       4   -0.021450  0.019627  0.001767  0.070776  0.005385  0.003460
       5   -0.002368 -0.000943  0.003208  0.005385  0.077584 -0.039956
       6   -0.003405  0.004411 -0.001152  0.003460 -0.039956  0.047895

 Mechanical properties :

  Convention :                    Reuss         Voigt         Hill
  Bulk  Modulus (GPa)     =      10.05034      10.05062      10.05048
  Shear Modulus (GPa)     =      18.27167      33.28694      25.77931
  Velocity S-wave (km/s)  =       5.58044       7.53210       6.62849
  Velocity P-wave (km/s)  =       7.65839       9.63188       8.70127
  Compressibility (1/GPa) =    0.09949916
  Stress axis :                     x             y             z
  Youngs Moduli (GPa)     =      36.99952      37.89064      54.22005
  Poissons Ratio (x)      =                     0.03597      -0.38061
  Poissons Ratio (y)      =       0.03513                    -0.42009
  Poissons Ratio (z)      =      -0.25973      -0.29357

  Piezoelectric Strain Matrix: (Units=C/m**2)

[...]

  Piezoelectric Stress Matrix: (Units=10**-11 C/N)

  Indices      1         2         3         4         5         6
       x    -0.98172  -7.43174  -0.28906 -19.22574  -4.08365  -5.87351
       y    -9.13130   4.49639  -0.15924  20.22437 -19.22574   7.62568
       z    -6.34868   5.80533  -2.78986  12.07062  21.91105 -19.22574

  Static dielectric constant tensor :

[...]

  High frequency dielectric constant tensor :

              x         y         z
       x     9.40366   0.15320   0.10651
       y     0.15320   9.20996   0.05868
       z     0.10651   0.05868   9.16637

  Static refractive indices :

[...]

  High frequency refractive indices :

    1 =    3.02086      2 =    3.02086      3 =    3.08688

  Time to end of properties =     257.6201 seconds

  Timing analysis for GULP :

  Task / Subroutine                                          Time (Seconds)
  Calculation of reciprocal space energy and derivatives         22.3174
  Calculation of real space energy and derivatives              222.1099
  Sum of squares for fitting                                     10.0166
  Global summation overhead                                       0.3360

  **** GULP has completed with  94 warnings - beware! ****

  Job Finished at 13:47.56 28th May        2010