  Job Started  at 12:12.12 11th June       2010

  Number of CPUs =     1

  Total number of configurations input = 106

*  Input for Configuration =   1                                               *

  Formula = Sb2Te3

  Number of irreducible atoms/shells =       5

  Total number atoms/shells =       5

  Dimensionality = 3               :  Bulk

  Cartesian lattice vectors (Angstroms) :

       -2.504286    0.000000   10.443767
        1.252143   -2.168775   10.443767
        1.252143    2.168775   10.443767

  Cell parameters (Angstroms/Degrees):

  a =      10.7398    alpha =  23.3006
  b =      10.7398    beta  =  23.3006
  c =      10.7398    gamma =  23.3006

  Initial cell volume =         170.167643 Angs**3

  Temperature of configuration =  0.000     K

  Pressure of configuration =         0.000 GPa

  Fractional coordinates of asymmetric unit :

   No.  Atomic       x           y          z         Charge      Occupancy
        Label      (Frac)      (Frac)     (Frac)        (e)         (Frac)
      1 Sb    c    0.369021    0.369021    0.369021      0.6200    1.000000
      2 Sb    c    0.603203    0.603203    0.603203      0.6200    1.000000
      3 Te1   c    0.000000    0.000000    0.000000     -0.5000    1.000000
      4 Te2   c    0.784571    0.784571    0.784571     -0.3700    1.000000
      5 Te2   c    0.215429    0.215429    0.215429     -0.3700    1.000000

[...]

   No.  Atomic       x           y          z         Charge      Occupancy
        Label      (Frac)      (Frac)     (Frac)        (e)         (Frac)
      1 Sb    c    0.396797    0.396797    0.396797      0.6200    1.000000
      2 Sb    c    0.603203    0.603203    0.603203      0.6200    1.000000
      3 Te1   c    0.000000    0.000000    0.000000     -0.5000    1.000000
      4 Te2   c    0.784571    0.784571    0.784571     -0.3700    1.000000
      5 Te2   c    0.215429    0.215429    0.215429     -0.3700    1.000000

*  Input for Configuration = 106                                               *

  Formula = Sb2Te3

  Number of irreducible atoms/shells =       5

  Total number atoms/shells =       5

  Dimensionality = 3               :  Bulk

  Cartesian lattice vectors (Angstroms) :

[...]

  Cell parameters (Angstroms/Degrees):

  a =      10.7398    alpha =  23.3000
  b =      10.7398    beta  =  23.3000
  c =      10.7398    gamma =  23.3000

  Initial cell volume =         170.158355 Angs**3

  Temperature of configuration =  0.000     K

  Pressure of configuration =         0.000 GPa

  Fractional coordinates of asymmetric unit :

   No.  Atomic       x           y          z         Charge      Occupancy
        Label      (Frac)      (Frac)     (Frac)        (e)         (Frac)
      1 Sb    c    0.396797    0.396797    0.396797      0.6200    1.000000
      2 Sb    c    0.603203 *  0.603203 *  0.603203 *    0.6200    1.000000
      3 Te1   c    0.000000 *  0.000000 *  0.000000 *   -0.5000    1.000000
      4 Te2   c    0.784571 *  0.784571 *  0.784571 *   -0.3700    1.000000
      5 Te2   c    0.215429 *  0.215429 *  0.215429 *   -0.3700    1.000000

*  General input information                                                   *

  Species output for all configurations :

  Species    Type    Atomic    Atomic    Charge       Radii (Angs)     Library
                     Number     Mass       (e)     Cova   Ionic  VDW   Symbol
    Sb       Core       51     121.75     0.6200   1.460  0.000  2.170
    Te1      Core       52     127.60    -0.5000   1.470  0.000  2.200
    Te2      Core       52     127.60    -0.3700   1.470  0.000  2.200

  Lattice summation method               =    Ewald
  Accuracy factor for lattice sums       =    8.000

  Time limit = Infinity

  Maximum range for interatomic potentials =         8.000000 Angstroms

  Taper potentials to zero over   8.0000 Angstroms using Voter m =  20.0000

  General interatomic potentials :

Atom  Types   Potential         A         B         C         D     Cutoffs(Ang)
  1     2                                                            Min    Max
Sb   c Te2  c Morse         0.230      3.65     3.03     0.00       0.000 12.000
Sb   c Te1  c Morse         0.548      1.18     3.20     0.00       0.000 12.000
Te2  c Te2  c Morse         0.740E-01  2.72     3.93     0.00       0.000 12.000

  Energy shifts for configurations :

      Configuration           Energy (eV)        Scale Factor
             1               -6.78000                 1.000
             2               -6.78000                 1.000
             3               -6.78000                 1.000
             4               -6.78000                 1.000
             5               -6.78000                 1.000
             6               -6.78000                 1.000
             7               -6.78000                 1.000
             8               -6.78000                 1.000
             9               -6.78000                 1.000
            10               -6.78000                 1.000
            11               -6.78000                 1.000
            12               -6.78000                 1.000
            13               -6.78000                 1.000
            14               -6.78000                 1.000
            15               -6.78000                 1.000
            16               -6.78000                 1.000
            17               -6.78000                 1.000
            18               -6.78000                 1.000
            19               -6.78000                 1.000
            20               -6.78000                 1.000
            21               -6.78000                 1.000
            22               -6.78000                 1.000
            23               -6.78000                 1.000
            24               -6.78000                 1.000
            25               -6.78000                 1.000
            26               -6.78000                 1.000
            27               -6.78000                 1.000
            28               -6.78000                 1.000
            29               -6.78000                 1.000
            30               -6.78000                 1.000
            31               -6.78000                 1.000
            32               -6.78000                 1.000
            33               -6.78000                 1.000
            34               -6.78000                 1.000
            35               -6.78000                 1.000
            36               -6.78000                 1.000
            37               -6.78000                 1.000
            38               -6.78000                 1.000
            39               -6.78000                 1.000
            40               -6.78000                 1.000
            41               -6.78000                 1.000
            42               -6.78000                 1.000
            43               -6.78000                 1.000
            44               -6.78000                 1.000
            45               -6.78000                 1.000
            46               -6.78000                 1.000
            47               -6.78000                 1.000
            48               -6.78000                 1.000
            49               -6.78000                 1.000
            50               -6.78000                 1.000
            51               -6.78000                 1.000
            52               -6.78000                 1.000
            53               -6.78000                 1.000
            54               -6.78000                 1.000
            55               -6.78000                 1.000
            56               -6.78000                 1.000
            57               -6.78000                 1.000
            58               -6.78000                 1.000
            59               -6.78000                 1.000
            60               -6.78000                 1.000
[...]
            92               -6.78000                 1.000
            93               -6.78000                 1.000
            94               -6.78000                 1.000
            95               -6.78000                 1.000
            96               -6.78000                 1.000
            97               -6.78000                 1.000
            98               -6.78000                 1.000
            99               -6.78000                 1.000
           100               -6.78000                 1.000
           101               -6.78000                 1.000
           102               -6.78000                 1.000
           103               -6.78000                 1.000
           104               -6.78000                 1.000
           105               -6.78000                 1.000
           106               -6.78000                 1.000

  Number of variables   =   10
  Number of observables =  130

   Observable no.  Type           Observable    Weight       Reference  Confign
          1        Energy          -16.066600        0.0000                1
          2        Energy          -16.584500        0.0000                2
          3        Energy          -17.060200        0.0000                3
          4        Energy          -17.480900        0.0000                4
          5        Energy          -17.831400        0.1000                5
          6        Energy          -18.095000        0.5000                6
          7        Energy          -18.258200        0.5000                7
          8        Energy          -18.313000        1.0000                8
          9        Energy          -18.257900        0.5000                9
         10        Energy          -18.096800        0.2000               10
         11        Energy          -17.838700        0.1000               11
         12        Energy          -17.496800        0.0000               12
         13        Energy          -17.088900        0.0000               13
         14        Energy          -16.635400        0.0000               14
         15        Energy          -16.162800        0.0000               15
         16        Energy          -14.700000        0.0000               16
         17        Energy          -15.230000        0.0000               17
         18        Energy          -15.880000        0.0000               18
         19        Energy          -16.600000        0.0000               19
         20        Energy          -17.270000        0.1000               20
         21        Energy          -17.830000        0.2000               21
         22        Energy          -18.190000        0.5000               22
         23        Energy          -18.310000        1.0000               23
         24        Energy          -18.190000        0.5000               24
         25        Energy          -17.820000        0.2000               25
         26        Energy          -17.250000        0.1000               26
         27        Energy          -16.540000        0.0000               27
[...]
        114        Derivative         0.00000      3.95330      2.41559
        115        Derivative         0.00000      3.96620      2.41273
        116        Derivative         0.00000     -0.01182      0.00263
        117        Derivative         0.00000     -0.05735      0.01274
        118        Derivative         0.00000     -0.09660      0.02145
        119        Derivative         0.00000      2.74855     -1.32020
        120        Derivative         0.00000      2.74855     -1.32020
        121        Derivative         0.00000      2.74855     -1.32020
        122        Derivative         0.00000      0.00001      0.00001
        123        Derivative         0.00000      0.00001      0.00001
        124        Derivative         0.00000      0.00001      0.00001
        125        Derivative         0.00000      5.42918      0.73325
        126        Derivative         0.00000      5.42918      0.73325
        127        Derivative         0.00000      5.42918      0.73325
        128        Derivative         0.00000     -5.42918     -0.73325
        129        Derivative         0.00000     -5.42918     -0.73325
        130        Derivative         0.00000     -5.42918     -0.73325

  Maximum range for interatomic potentials =         8.000000 Angstroms

  Taper potentials to zero over   8.0000 Angstroms using Voter m =  20.0000

  General interatomic potentials :

Atom  Types   Potential         A         B         C         D     Cutoffs(Ang)
  1     2                                                            Min    Max
Sb   c Te2  c Morse         0.245      3.20     3.07     0.00       0.000 12.000
Sb   c Te1  c Morse         0.493      1.15     3.19     0.00       0.000 12.000
Te2  c Te2  c Morse         0.630E-01  2.83     3.88     0.00       0.000 12.000

  Energy shifts for configurations :

      Configuration           Energy (eV)        Scale Factor
             1               -6.86020                 1.000
             2               -6.86020                 1.000
             3               -6.86020                 1.000
             4               -6.86020                 1.000
             5               -6.86020                 1.000
             6               -6.86020                 1.000
             7               -6.86020                 1.000
             8               -6.86020                 1.000
             9               -6.86020                 1.000
            10               -6.86020                 1.000
            11               -6.86020                 1.000
            12               -6.86020                 1.000
            13               -6.86020                 1.000
            14               -6.86020                 1.000
            15               -6.86020                 1.000
            16               -6.86020                 1.000
            17               -6.86020                 1.000
            18               -6.86020                 1.000
            19               -6.86020                 1.000
            20               -6.86020                 1.000
            21               -6.86020                 1.000
            22               -6.86020                 1.000
            23               -6.86020                 1.000
            24               -6.86020                 1.000
            25               -6.86020                 1.000
            26               -6.86020                 1.000
            27               -6.86020                 1.000
            28               -6.86020                 1.000
            29               -6.86020                 1.000
            30               -6.86020                 1.000
            31               -6.86020                 1.000
            32               -6.86020                 1.000
            33               -6.86020                 1.000
            34               -6.86020                 1.000
            35               -6.86020                 1.000
            36               -6.86020                 1.000
            37               -6.86020                 1.000
            38               -6.86020                 1.000
            39               -6.86020                 1.000
            40               -6.86020                 1.000
            41               -6.86020                 1.000
            42               -6.86020                 1.000
            43               -6.86020                 1.000
            44               -6.86020                 1.000
            45               -6.86020                 1.000
            46               -6.86020                 1.000
            47               -6.86020                 1.000
            48               -6.86020                 1.000
            49               -6.86020                 1.000
            50               -6.86020                 1.000
            51               -6.86020                 1.000
            52               -6.86020                 1.000
            53               -6.86020                 1.000
            54               -6.86020                 1.000
            55               -6.86020                 1.000
            56               -6.86020                 1.000
            57               -6.86020                 1.000
            58               -6.86020                 1.000
            59               -6.86020                 1.000
            60               -6.86020                 1.000
[...]
            92               -6.86020                 1.000
            93               -6.86020                 1.000
            94               -6.86020                 1.000
            95               -6.86020                 1.000
            96               -6.86020                 1.000
            97               -6.86020                 1.000
            98               -6.86020                 1.000
            99               -6.86020                 1.000
           100               -6.86020                 1.000
           101               -6.86020                 1.000
           102               -6.86020                 1.000
           103               -6.86020                 1.000
           104               -6.86020                 1.000
           105               -6.86020                 1.000
           106               -6.86020                 1.000

  Total time to end of fitting =     116.4313 seconds

*  Output for configuration   1                                                *

!! WARNING : No variables to optimise - single point performed

  Components of energy :

  Interatomic potentials     =          -4.20210984 eV
  Monopole - monopole (real) =          -1.17953623 eV
  Monopole - monopole (recip)=          -3.08937235 eV
  Monopole - monopole (total)=          -4.26890857 eV
  Energy shift               =          -6.86019794 eV
  Total lattice energy       =         -15.33121636 eV
  Total lattice energy       =           -1479.2280 kJ/(mole unit cells)

  Born effective charge tensors :

  Atom             x           y             z
   1 Sb    x       0.6200      0.0000      0.0000
           y       0.0000      0.6200      0.0000
           z       0.0000      0.0000      0.6200
   2 Sb    x       0.6200      0.0000      0.0000
           y       0.0000      0.6200      0.0000
           z       0.0000      0.0000      0.6200
   3 Te1   x      -0.5000      0.0000      0.0000
           y       0.0000     -0.5000      0.0000
           z       0.0000      0.0000     -0.5000
   4 Te2   x      -0.3700      0.0000      0.0000
           y       0.0000     -0.3700      0.0000
           z       0.0000      0.0000     -0.3700
   5 Te2   x      -0.3700      0.0000      0.0000
           y       0.0000     -0.3700      0.0000
           z       0.0000      0.0000     -0.3700

  Elastic Constant Matrix: (Units=GPa)

  Indices      1         2         3         4         5         6
       1    113.9031   19.3808   63.6763    0.0000   71.8783   -0.0000
       2     19.3808  113.9031   63.6763    0.0000  -71.8783   -0.0000
       3     63.6763   63.6763   50.4356    0.0000   -0.0000   -0.0000
       4      0.0000    0.0000    0.0000   95.8725   -0.0000  -71.8783
       5     71.8783  -71.8783   -0.0000   -0.0000   95.8725    0.0000
       6     -0.0000   -0.0000   -0.0000  -71.8783    0.0000   47.2612

  Elastic Compliance Matrix: (Units=1/GPa)

[...]

 Mechanical properties :

  Convention :                    Reuss         Voigt         Hill
  Bulk  Modulus (GPa)     =      67.49787      63.52319      65.51053
  Shear Modulus (GPa)     =      -6.89397      56.56845      24.83724
  Velocity S-wave (km/s)  =      -3.35857       9.62069       6.37486
  Velocity P-wave (km/s)  =       9.76732      15.07805      12.70331
  Compressibility (1/GPa) =    0.01481528
  Stress axis :                     x             y             z
  Youngs Moduli (GPa)     =     -17.88948     -17.88948     -10.40709
  Poissons Ratio (x)      =                     0.34953       0.47775
  Poissons Ratio (y)      =       0.34953                     0.47775
  Poissons Ratio (z)      =       0.82124       0.82124

  Piezoelectric Strain Matrix: (Units=C/m**2)

  Indices      1         2         3         4         5         6
       x     9.30500  -9.30500  -0.00000  -0.00000  12.74847   0.00000
       y     0.00000   0.00000   0.00000  12.74847  -0.00000  -9.30500
       z     3.97302   3.97302   3.90235   0.00000  -0.00000  -0.00000

  Piezoelectric Stress Matrix: (Units=10**-11 C/N)

[...]

  Static dielectric constant tensor :

              x         y         z
       x    -0.44042   0.00000   0.00000
       y     0.00000  -0.44042  -0.00000
       z     0.00000  -0.00000   0.72350

  Static refractive indices :

    1 =   -0.66365      2 =   -0.66365      3 =    0.85059

  Time to end of properties =     116.4353 seconds

[...]

!! WARNING : No variables to optimise - single point performed

[...]

  Time to end of properties =     116.7033 seconds

*  Output for configuration 106                                                *

[...]

  Number of variables =     18

  Maximum number of calculations  =          1000
  Maximum Hessian update interval =            10
  Maximum step size               =   1.000000000
  Maximum parameter tolerance     =   0.000010000
  Maximum function  tolerance     =   0.000010000
  Maximum gradient  tolerance     =   0.001000000
  Maximum gradient  component     =   0.010000000

  Symmetry not applied to optimisation

  Cell parameters to be optimised using strains

  Newton-Raphson optimiser to be used

  BFGS hessian update to be used

  Dumpfile to be written after every cycle

  Start of bulk optimisation :

  ** Hessian calculated **

  **** Optimisation achieved ****

  Final energy =     -16.93183170 eV
  Final Gnorm  =       0.00040160

  Components of energy :

  Interatomic potentials     =          -5.66523133 eV
  Monopole - monopole (real) =          -1.05118321 eV
  Monopole - monopole (recip)=          -3.35521922 eV
  Monopole - monopole (total)=          -4.40640243 eV
  Energy shift               =          -6.86019794 eV
  Total lattice energy       =         -16.93183170 eV
  Total lattice energy       =           -1633.6629 kJ/(mole unit cells)

  Final fractional coordinates of atoms :

   No.  Atomic        x           y          z          Radius
        Label       (Frac)      (Frac)     (Frac)       (Angs)
     1  Sb    c     0.396797    0.396797    0.396797    0.000000
     2  Sb    c     0.608903    0.608903    0.608903    0.000000
     3  Te1   c     0.002850    0.002850    0.002850    0.000000
     4  Te2   c     0.788975    0.788975    0.788975    0.000000
     5  Te2   c     0.216724    0.216724    0.216724    0.000000

  Final Cartesian lattice vectors (Angstroms) :

       11.238503    0.289420    0.171833
       10.436442    4.179522    0.171833
       10.436442    2.151787    3.587164

  Final cell parameters and derivatives :

       a           11.243543 Angstrom     dE/de1(xx)    -0.001347 eV/strain
       b           11.243543 Angstrom     dE/de2(yy)    -0.000337 eV/strain
       c           11.243543 Angstrom     dE/de3(zz)    -0.000308 eV/strain
       alpha       20.347223 Degrees      dE/de4(yz)    -0.000027 eV/strain
       beta        20.347223 Degrees      dE/de5(xz)    -0.000129 eV/strain
       gamma       20.347223 Degrees      dE/de6(xy)    -0.000218 eV/strain

  Primitive cell volume =           150.386871 Angs**3

  Density of cell =      6.915578 g/cm**3

  Non-primitive cell volume =           150.386871 Angs**3

  Final internal derivatives :

   No.  Atomic          x             y             z           Radius
        Label          (eV)          (eV)          (eV)        (eV/Angs)
      1 Sb    c       0.000000      0.000000      0.000000      0.000000
      2 Sb    c      -0.002059     -0.002059     -0.002059      0.000000
      3 Te1   c      -0.000000     -0.000000     -0.000000      0.000000
      4 Te2   c      -0.002498     -0.002498     -0.002498      0.000000
      5 Te2   c       0.002498      0.002498      0.002498      0.000000
  Maximum abs         0.002498      0.002498      0.002498      0.000000

  Born effective charge tensors :

  Atom             x           y             z
   1 Sb    x       0.6200      0.0000      0.0000
           y       0.0000      0.6200      0.0000
           z       0.0000      0.0000      0.6200
   2 Sb    x       0.6200      0.0000      0.0000
           y       0.0000      0.6200      0.0000
           z       0.0000      0.0000      0.6200
   3 Te1   x      -0.5000      0.0000      0.0000
           y       0.0000     -0.5000      0.0000
           z       0.0000      0.0000     -0.5000
   4 Te2   x      -0.3700      0.0000      0.0000
           y       0.0000     -0.3700      0.0000
           z       0.0000      0.0000     -0.3700
   5 Te2   x      -0.3700      0.0000      0.0000
           y       0.0000     -0.3700      0.0000
           z       0.0000      0.0000     -0.3700

  Elastic Constant Matrix: (Units=GPa)

[...]

  Elastic Compliance Matrix: (Units=1/GPa)

  Indices      1         2         3         4         5         6
       1    0.734093  0.482963 -1.222610  3.127794 -1.679577 -2.828925
       2    0.482963  6.527171 -6.992901 -4.529210 -5.117470  0.334031
       3   -1.222610 -6.992901  8.233400  1.400215  6.791220  2.485080
       4    3.127794 -4.529210  1.400215 21.105893 -3.137072-15.048331
       5   -1.679577 -5.117470  6.791220 -3.137072  6.537492  5.263162
       6   -2.828925  0.334031  2.485080-15.048331  5.263162 12.277455

 Mechanical properties :

  Convention :                    Reuss         Voigt         Hill
  Bulk  Modulus (GPa)     =      33.81981      46.32861      40.07421
  Shear Modulus (GPa)     =       0.07053      22.40120      11.23586
  Velocity S-wave (km/s)  =       0.31936       5.69143       4.03078
  Velocity P-wave (km/s)  =       7.00284      10.49674       8.92248
  Compressibility (1/GPa) =    0.02956847
  Stress axis :                     x             y             z
  Youngs Moduli (GPa)     =       1.36223       0.15321       0.12146
  Poissons Ratio (x)      =                    -0.07399       0.14849
  Poissons Ratio (y)      =      -0.65790                     0.84933
  Poissons Ratio (z)      =       1.66547       1.07135

  Piezoelectric Strain Matrix: (Units=C/m**2)

[...]

  Piezoelectric Stress Matrix: (Units=10**-11 C/N)

  Indices      1         2         3         4         5         6
       x    -0.00000  -0.00000   0.00000  -0.00000   0.00000   0.00000
       y     0.00000  -0.00000   0.00000   0.00000  -0.00000  -0.00000
       z     0.00000   0.00000  -0.00000  -0.00000  -0.00000  -0.00000

  Static dielectric constant tensor :

              x         y         z
       x     1.09476  -0.01347  -0.00800
       y    -0.01347   1.15732  -0.00165
       z    -0.00800  -0.00165   1.15911

  Static refractive indices :

    1 =    1.04451      2 =    1.07708      3 =    1.07708

  Time to end of optimisation =     116.8873 seconds

  Timing analysis for GULP :

  Task / Subroutine                                          Time (Seconds)
  Calculation of reciprocal space energy and derivatives          6.7524
  Calculation of real space energy and derivatives              105.9746
  Sum of squares for fitting                                      2.5922
  Global summation overhead                                       0.1240

  Dump file written as sb2te3.res

  **** GULP has completed with 105 warnings - beware! ****

  Job Finished at 12:14.09 11th June       2010