  Job Started  at 16:42.48 20th June       2010

  Number of CPUs =     1

  Total number of configurations input = 106

*  Input for Configuration =   1                                               *

  Formula = Sb2Te3

  Number of irreducible atoms/shells =       5

  Total number atoms/shells =       5

  Dimensionality = 3               :  Bulk

  Cartesian lattice vectors (Angstroms) :

       -2.504286    0.000000   10.443767
        1.252143   -2.168775   10.443767
        1.252143    2.168775   10.443767

  Cell parameters (Angstroms/Degrees):

  a =      10.7398    alpha =  23.3006
  b =      10.7398    beta  =  23.3006
  c =      10.7398    gamma =  23.3006

  Initial cell volume =         170.167643 Angs**3

  Temperature of configuration =  0.000     K

  Pressure of configuration =         0.000 GPa

  Fractional coordinates of asymmetric unit :

   No.  Atomic       x           y          z         Charge      Occupancy
        Label      (Frac)      (Frac)     (Frac)        (e)         (Frac)
      1 Sb    c    0.369021    0.369021    0.369021      0.6200    1.000000
      2 Sb    c    0.603203    0.603203    0.603203      0.6200    1.000000
      3 Te1   c    0.000000    0.000000    0.000000     -0.5000    1.000000
      4 Te2   c    0.784571    0.784571    0.784571     -0.3700    1.000000
      5 Te2   c    0.215429    0.215429    0.215429     -0.3700    1.000000

[...]

*  Input for Configuration = 106                                               *

  Formula = Sb2Te3

  Number of irreducible atoms/shells =       5

  Total number atoms/shells =       5

  Dimensionality = 3               :  Bulk

  Cartesian lattice vectors (Angstroms) :

[...]

  Cell parameters (Angstroms/Degrees):

  a =      10.7398    alpha =  23.3000
  b =      10.7398    beta  =  23.3000
  c =      10.7398    gamma =  23.3000

  Initial cell volume =         170.158355 Angs**3

  Temperature of configuration =  0.000     K

  Pressure of configuration =         0.000 GPa

  Fractional coordinates of asymmetric unit :

   No.  Atomic       x           y          z         Charge      Occupancy
        Label      (Frac)      (Frac)     (Frac)        (e)         (Frac)
      1 Sb    c    0.396797    0.396797    0.396797      0.6200    1.000000
      2 Sb    c    0.603203    0.603203    0.603203      0.6200    1.000000
      3 Te1   c    0.000000    0.000000    0.000000     -0.5000    1.000000
      4 Te2   c    0.784571    0.784571    0.784571     -0.3700    1.000000
      5 Te2   c    0.215429    0.215429    0.215429     -0.3700    1.000000

*  General input information                                                   *

  Species output for all configurations :

  Species    Type    Atomic    Atomic    Charge       Radii (Angs)     Library
                     Number     Mass       (e)     Cova   Ionic  VDW   Symbol
    Sb       Core       51     121.75     0.6200   1.460  0.000  2.170
    Te1      Core       52     127.60    -0.5000   1.470  0.000  2.200
    Te2      Core       52     127.60    -0.3700   1.470  0.000  2.200

  Lattice summation method               =    Ewald
  Accuracy factor for lattice sums       =    8.000

  Time limit = Infinity

  Maximum range for interatomic potentials =         8.000000 Angstroms

  Taper potentials to zero over   8.0000 Angstroms using Voter m =  20.0000

  General interatomic potentials :

Atom  Types   Potential         A         B         C         D     Cutoffs(Ang)
  1     2                                                            Min    Max
Sb   c Te2  c Morse         0.100      3.65     3.03     0.00       0.000 12.000
Sb   c Te1  c Morse         0.100      1.18     3.20     0.00       0.000 12.000
Te1  c Te1  c Morse         0.730E-01  1.07     4.34     0.00       0.000 12.000
Te2  c Te2  c Morse         0.740E-01  2.72     3.93     0.00       0.000 12.000

  Energy shifts for configurations :

      Configuration           Energy (eV)        Scale Factor
             1               -6.78000                 1.000
             2               -6.78000                 1.000
             3               -6.78000                 1.000
             4               -6.78000                 1.000
             5               -6.78000                 1.000
             6               -6.78000                 1.000
             7               -6.78000                 1.000
             8               -6.78000                 1.000
             9               -6.78000                 1.000
            10               -6.78000                 1.000
            11               -6.78000                 1.000
            12               -6.78000                 1.000
            13               -6.78000                 1.000
            14               -6.78000                 1.000
            15               -6.78000                 1.000
            16               -6.78000                 1.000
            17               -6.78000                 1.000
            18               -6.78000                 1.000
            19               -6.78000                 1.000
            20               -6.78000                 1.000
            21               -6.78000                 1.000
            22               -6.78000                 1.000
            23               -6.78000                 1.000
            24               -6.78000                 1.000
            25               -6.78000                 1.000
            26               -6.78000                 1.000
            27               -6.78000                 1.000
            28               -6.78000                 1.000
            29               -6.78000                 1.000
            30               -6.78000                 1.000
            31               -6.78000                 1.000
            32               -6.78000                 1.000
            33               -6.78000                 1.000
            34               -6.78000                 1.000
            35               -6.78000                 1.000
            36               -6.78000                 1.000
            37               -6.78000                 1.000
            38               -6.78000                 1.000
            39               -6.78000                 1.000
            40               -6.78000                 1.000
            41               -6.78000                 1.000
            42               -6.78000                 1.000
            43               -6.78000                 1.000
            44               -6.78000                 1.000
            45               -6.78000                 1.000
            46               -6.78000                 1.000
            47               -6.78000                 1.000
            48               -6.78000                 1.000
            49               -6.78000                 1.000
            50               -6.78000                 1.000
            51               -6.78000                 1.000
            52               -6.78000                 1.000
            53               -6.78000                 1.000
            54               -6.78000                 1.000
            55               -6.78000                 1.000
            56               -6.78000                 1.000
            57               -6.78000                 1.000
            58               -6.78000                 1.000
            59               -6.78000                 1.000
            60               -6.78000                 1.000
[...]
            92               -6.78000                 1.000
            93               -6.78000                 1.000
            94               -6.78000                 1.000
            95               -6.78000                 1.000
            96               -6.78000                 1.000
            97               -6.78000                 1.000
            98               -6.78000                 1.000
            99               -6.78000                 1.000
           100               -6.78000                 1.000
           101               -6.78000                 1.000
           102               -6.78000                 1.000
           103               -6.78000                 1.000
           104               -6.78000                 1.000
           105               -6.78000                 1.000
           106               -6.78000                 1.000

  Number of variables   =   13
  Number of observables =  111

   Observable no.  Type           Observable    Weight       Reference  Confign
          1        Energy          -16.066600        0.0000                1
          2        Energy          -16.584500        0.0000                2
          3        Energy          -17.060200        0.0000                3
          4        Energy          -17.480900        0.0000                4
          5        Energy          -17.831400        0.1000                5
          6        Energy          -18.095000        0.5000                6
          7        Energy          -18.258200        0.5000                7
          8        Energy          -18.313000        1.0000                8
          9        Energy          -18.257900        0.5000                9
         10        Energy          -18.096800        0.2000               10
         11        Energy          -17.838700        0.1000               11
         12        Energy          -17.496800        0.0000               12
         13        Energy          -17.088900        0.0000               13
         14        Energy          -16.635400        0.0000               14
         15        Energy          -16.162800        0.0000               15
         16        Energy          -14.700000        0.0000               16
         17        Energy          -15.230000        0.0000               17
         18        Energy          -15.880000        0.0000               18
         19        Energy          -16.600000        0.0000               19
         20        Energy          -17.270000        0.1000               20
         21        Energy          -17.830000        0.2000               21
         22        Energy          -18.190000        0.5000               22
         23        Energy          -18.310000        1.0000               23
         24        Energy          -18.190000        0.5000               24
         25        Energy          -17.820000        0.2000               25
         26        Energy          -17.250000        0.1000               26
         27        Energy          -16.540000        0.0000               27
         28        Energy          -15.740000        0.0000               28
         29        Energy          -14.900000        0.0000               29
         30        Energy          -14.070000        0.0000               30
         31        Energy          -11.870000        0.0000               31
         32        Energy          -12.400000        0.0000               32
         33        Energy          -13.510000        0.0000               33
[...]
         96        Energy           -17.91000    -13.48035    -17.99829
         97        Energy           -18.23000    -13.51347    -18.20329
         98        Energy           -18.32000    -13.39845    -18.24715
         99        Energy           -18.24000    -13.20679    -18.19805
        100        Energy           -18.01000    -12.98118    -18.09816
        101        Energy           -17.66000    -12.74642    -17.97324
        102        Energy           -17.23000    -12.51619    -17.83858
        103        Energy           -16.72000    -12.29720    -17.70274
        104        Energy           -16.16000    -12.09267    -17.57071
        105        Energy           -18.31000    -13.39859    -18.24714
        106        Derivative         0.00000      3.05147      0.98247
        107        Derivative         0.00000      2.54002     -0.19085
        108        Derivative         0.00000      2.52532     -0.22458
        109        Derivative         0.00000      0.01348      0.03093
        110        Derivative         0.00000      0.06539      0.15001
        111        Derivative         0.00000      0.11013      0.25266

  Maximum range for interatomic potentials =         8.000000 Angstroms

  Taper potentials to zero over   8.0000 Angstroms using Voter m =  20.0000

  General interatomic potentials :

Atom  Types   Potential         A         B         C         D     Cutoffs(Ang)
  1     2                                                            Min    Max
Sb   c Te2  c Morse         0.474E-01  3.63     3.14     0.00       0.000 12.000
Sb   c Te1  c Morse         0.252E-01 0.626     3.15     0.00       0.000 12.000
Te1  c Te1  c Morse         0.586E-01  1.05     4.37     0.00       0.000 12.000
Te2  c Te2  c Morse         0.175E-01  2.58     4.10     0.00       0.000 12.000

  Energy shifts for configurations :

      Configuration           Energy (eV)        Scale Factor
             1               -12.8864                 1.000
             2               -12.8864                 1.000
             3               -12.8864                 1.000
             4               -12.8864                 1.000
             5               -12.8864                 1.000
             6               -12.8864                 1.000
             7               -12.8864                 1.000
             8               -12.8864                 1.000
             9               -12.8864                 1.000
            10               -12.8864                 1.000
            11               -12.8864                 1.000
            12               -12.8864                 1.000
            13               -12.8864                 1.000
            14               -12.8864                 1.000
            15               -12.8864                 1.000
            16               -12.8864                 1.000
            17               -12.8864                 1.000
            18               -12.8864                 1.000
            19               -12.8864                 1.000
            20               -12.8864                 1.000
            21               -12.8864                 1.000
            22               -12.8864                 1.000
            23               -12.8864                 1.000
            24               -12.8864                 1.000
            25               -12.8864                 1.000
            26               -12.8864                 1.000
            27               -12.8864                 1.000
            28               -12.8864                 1.000
            29               -12.8864                 1.000
            30               -12.8864                 1.000
            31               -12.8864                 1.000
            32               -12.8864                 1.000
            33               -12.8864                 1.000
            34               -12.8864                 1.000
            35               -12.8864                 1.000
            36               -12.8864                 1.000
            37               -12.8864                 1.000
            38               -12.8864                 1.000
            39               -12.8864                 1.000
            40               -12.8864                 1.000
            41               -12.8864                 1.000
            42               -12.8864                 1.000
            43               -12.8864                 1.000
            44               -12.8864                 1.000
            45               -12.8864                 1.000
            46               -12.8864                 1.000
            47               -12.8864                 1.000
            48               -12.8864                 1.000
            49               -12.8864                 1.000
            50               -12.8864                 1.000
            51               -12.8864                 1.000
            52               -12.8864                 1.000
            53               -12.8864                 1.000
            54               -12.8864                 1.000
            55               -12.8864                 1.000
            56               -12.8864                 1.000
            57               -12.8864                 1.000
            58               -12.8864                 1.000
            59               -12.8864                 1.000
            60               -12.8864                 1.000
[...]
            92               -12.8864                 1.000
            93               -12.8864                 1.000
            94               -12.8864                 1.000
            95               -12.8864                 1.000
            96               -12.8864                 1.000
            97               -12.8864                 1.000
            98               -12.8864                 1.000
            99               -12.8864                 1.000
           100               -12.8864                 1.000
           101               -12.8864                 1.000
           102               -12.8864                 1.000
           103               -12.8864                 1.000
           104               -12.8864                 1.000
           105               -12.8864                 1.000
           106               -12.8864                 1.000

  Total time to end of fitting =     265.7406 seconds

*  Output for configuration   1                                                *

!! WARNING : No variables to optimise - single point performed

  Components of energy :

  Interatomic potentials     =          -0.65468568 eV
  Monopole - monopole (real) =          -1.17953623 eV
  Monopole - monopole (recip)=          -3.08937235 eV
  Monopole - monopole (total)=          -4.26890857 eV
  Energy shift               =         -12.88639378 eV
  Total lattice energy       =         -17.80998803 eV
  Total lattice energy       =           -1718.3916 kJ/(mole unit cells)

  Born effective charge tensors :

  Atom             x           y             z
   1 Sb    x       0.6200      0.0000      0.0000
           y       0.0000      0.6200      0.0000
           z       0.0000      0.0000      0.6200
   2 Sb    x       0.6200      0.0000      0.0000
           y       0.0000      0.6200      0.0000
           z       0.0000      0.0000      0.6200
   3 Te1   x      -0.5000      0.0000      0.0000
           y       0.0000     -0.5000      0.0000
           z       0.0000      0.0000     -0.5000
   4 Te2   x      -0.3700      0.0000      0.0000
           y       0.0000     -0.3700      0.0000
           z       0.0000      0.0000     -0.3700
   5 Te2   x      -0.3700      0.0000      0.0000
           y       0.0000     -0.3700      0.0000
           z       0.0000      0.0000     -0.3700

  Elastic Constant Matrix: (Units=GPa)

  Indices      1         2         3         4         5         6
       1     15.4170   18.0904    7.0638   -0.0000   -6.0118    0.0000
       2     18.0904   15.4170    7.0638   -0.0000    6.0118    0.0000
       3      7.0638    7.0638   13.8693    0.0000    0.0000   -0.0000
       4     -0.0000   -0.0000    0.0000   -4.5244    0.0000    6.0118
       5     -6.0118    6.0118    0.0000    0.0000   -4.5244    0.0000
       6      0.0000    0.0000   -0.0000    6.0118    0.0000   -1.3367

  Elastic Compliance Matrix: (Units=1/GPa)

[...]

 Mechanical properties :

  Convention :                    Reuss         Voigt         Hill
  Bulk  Modulus (GPa)     =      11.06156      12.12658      11.59407
  Shear Modulus (GPa)     =       8.49025      -1.24478       3.62274
  Velocity S-wave (km/s)  =       3.72717      -1.42714       2.43466
  Velocity P-wave (km/s)  =       6.05157       4.13836       5.18399
  Compressibility (1/GPa) =    0.09040315
  Stress axis :                     x             y             z
  Youngs Moduli (GPa)     =      17.67119      17.67119      10.89106
  Poissons Ratio (x)      =                     0.32840       0.21081
  Poissons Ratio (y)      =       0.32840                     0.21081
  Poissons Ratio (z)      =       0.34205       0.34205

  Piezoelectric Strain Matrix: (Units=C/m**2)

  Indices      1         2         3         4         5         6
       x    -2.82795   2.82795   0.00000   0.00000  -2.13617   0.00000
       y    -0.00000  -0.00000  -0.00000  -2.13617   0.00000   2.82795
       z     3.16924   3.16924   1.90309   0.00000   0.00000   0.00000

  Piezoelectric Stress Matrix: (Units=10**-11 C/N)

[...]

  Static dielectric constant tensor :

              x         y         z
       x     0.20174  -0.00000  -0.00000
       y    -0.00000   0.20174   0.00000
       z    -0.00000   0.00000   0.26450

  Static refractive indices :

    1 =    0.44916      2 =    0.44916      3 =    0.51430

  Time to end of properties =     265.7446 seconds

[...]

!! WARNING : No variables to optimise - single point performed

[...]

  Time to end of properties =     265.9926 seconds

*  Output for configuration 106                                                *

[...]

  Number of variables =      6

  Maximum number of calculations  =          1000
  Maximum Hessian update interval =            10
  Maximum step size               =   1.000000000
  Maximum parameter tolerance     =   0.000010000
  Maximum function  tolerance     =   0.000010000
  Maximum gradient  tolerance     =   0.001000000
  Maximum gradient  component     =   0.010000000

  Symmetry not applied to optimisation

  Cell parameters to be optimised using strains

  Newton-Raphson optimiser to be used

  BFGS hessian update to be used

  Dumpfile to be written after every cycle

  Start of bulk optimisation :

  ** Hessian calculated **

  **** Optimisation achieved ****

  Final energy =     -18.29866389 eV
  Final Gnorm  =       0.00014348

  Components of energy :

  Interatomic potentials     =          -0.64594255 eV
  Monopole - monopole (real) =          -1.17220870 eV
  Monopole - monopole (recip)=          -3.59411887 eV
  Monopole - monopole (total)=          -4.76632756 eV
  Energy shift               =         -12.88639378 eV
  Total lattice energy       =         -18.29866389 eV
  Total lattice energy       =           -1765.5413 kJ/(mole unit cells)

  Final fractional coordinates of atoms :

   No.  Atomic        x           y          z          Radius
        Label       (Frac)      (Frac)     (Frac)       (Angs)
     1  Sb    c     0.396797    0.396797    0.396797    0.000000
     2  Sb    c     0.603203    0.603203    0.603203    0.000000
     3  Te1   c     0.000000    0.000000    0.000000    0.000000
     4  Te2   c     0.784571    0.784571    0.784571    0.000000
     5  Te2   c     0.215429    0.215429    0.215429    0.000000

  Final Cartesian lattice vectors (Angstroms) :

        9.946346   -0.250154   -0.148520
        9.036238    4.163986   -0.148520
        9.036238    1.863093    3.726891

  Final cell parameters and derivatives :

       a            9.950599 Angstrom     dE/de1(xx)     0.000548 eV/strain
       b            9.950599 Angstrom     dE/de2(yy)     0.000470 eV/strain
       c            9.950599 Angstrom     dE/de3(zz)     0.000468 eV/strain
       alpha       26.178444 Degrees      dE/de4(yz)     0.000002 eV/strain
       beta        26.178444 Degrees      dE/de5(xz)     0.000010 eV/strain
       gamma       26.178444 Degrees      dE/de6(xy)     0.000017 eV/strain

  Primitive cell volume =           168.954944 Angs**3

  Density of cell =      6.155559 g/cm**3

  Non-primitive cell volume =           168.954944 Angs**3

  Final internal derivatives :

   No.  Atomic          x             y             z           Radius
        Label          (eV)          (eV)          (eV)        (eV/Angs)
      1 Sb    c       0.000000      0.000000      0.000000      0.000000
      2 Sb    c       0.000000      0.000000      0.000000      0.000000
      3 Te1   c       0.000000      0.000000      0.000000      0.000000
      4 Te2   c       0.000000      0.000000      0.000000      0.000000
      5 Te2   c       0.000000      0.000000      0.000000      0.000000
  Maximum abs         0.000000      0.000000      0.000000      0.000000

  Born effective charge tensors :

  Atom             x           y             z
   1 Sb    x       0.6200      0.0000      0.0000
           y       0.0000      0.6200      0.0000
           z       0.0000      0.0000      0.6200
   2 Sb    x       0.6200      0.0000      0.0000
           y       0.0000      0.6200      0.0000
           z       0.0000      0.0000      0.6200
   3 Te1   x      -0.5000      0.0000      0.0000
           y       0.0000     -0.5000      0.0000
           z       0.0000      0.0000     -0.5000
   4 Te2   x      -0.3700      0.0000      0.0000
           y       0.0000     -0.3700      0.0000
           z       0.0000      0.0000     -0.3700
   5 Te2   x      -0.3700      0.0000      0.0000
           y       0.0000     -0.3700      0.0000
           z       0.0000      0.0000     -0.3700

  Elastic Constant Matrix: (Units=GPa)

[...]

  Elastic Compliance Matrix: (Units=1/GPa)

  Indices      1         2         3         4         5         6
       1    0.110970 -0.015653 -0.049158  0.061443 -0.011697 -0.019701
       2   -0.015653  0.116941 -0.020162 -0.093804 -0.145258  0.017130
       3   -0.049158 -0.020162  0.151451  0.030518  0.148014 -0.012487
       4    0.061443 -0.093804  0.030518  0.148520  0.009001 -0.270343
       5   -0.011697 -0.145258  0.148014  0.009001  0.190322  0.127045
       6   -0.019701  0.017130 -0.012487 -0.270343  0.127045  0.328876

 Mechanical properties :

  Convention :                    Reuss         Voigt         Hill
  Bulk  Modulus (GPa)     =       4.77520       4.92914       4.85217
  Shear Modulus (GPa)     =       3.88551      -3.29730       0.29410
  Velocity S-wave (km/s)  =       2.51241      -2.31444       0.69122
  Velocity P-wave (km/s)  =       4.02167       0.93030       2.91884
  Compressibility (1/GPa) =    0.20941542
  Stress axis :                     x             y             z
  Youngs Moduli (GPa)     =       9.01141       8.55131       6.60280
  Poissons Ratio (x)      =                     0.13386       0.32458
  Poissons Ratio (y)      =       0.14106                     0.13313
  Poissons Ratio (z)      =       0.44298       0.17242

  Piezoelectric Strain Matrix: (Units=C/m**2)

[...]

  Piezoelectric Stress Matrix: (Units=10**-11 C/N)

  Indices      1         2         3         4         5         6
       x    -0.00000  -0.00001  -0.00001  -0.00000  -0.00000  -0.00000
       y    -0.00000   0.00000  -0.00000   0.00000  -0.00000   0.00001
       z    -0.00000   0.00000  -0.00000   0.00000   0.00001  -0.00000

  Static dielectric constant tensor :

              x         y         z
       x     2.07385   0.42594   0.25289
       y     0.42594   0.09580   0.05214
       z     0.25289   0.05214   0.03893

  Static refractive indices :

    1 =    0.08932      2 =    0.08932      3 =    1.48075

  Time to end of optimisation =     266.0766 seconds

  Timing analysis for GULP :

  Task / Subroutine                                          Time (Seconds)
  Calculation of reciprocal space energy and derivatives         19.2653
  Calculation of real space energy and derivatives              237.8148
  Sum of squares for fitting                                      6.5844
  Global summation overhead                                       0.3280

  Dump file written as sb2te3.res

  **** GULP has completed with 105 warnings - beware! ****

  Job Finished at 16:51.34 20th June       2010