  Job Started  at 12:14.48 21st June       2010

  Number of CPUs =     1

  Total number of configurations input =  13

*  Input for Configuration =   1                                               *

  Formula = Sb2Te3

  Number of irreducible atoms/shells =       5

  Total number atoms/shells =       5

  Dimensionality = 3               :  Bulk

  Cartesian lattice vectors (Angstroms) :

       -2.303943    0.000000    9.608266
        1.151972   -1.995273    9.608266
        1.151972    1.995273    9.608266

  Cell parameters (Angstroms/Degrees):

  a =       9.8806    alpha =  23.3006
  b =       9.8806    beta  =  23.3006
  c =       9.8806    gamma =  23.3006

  Initial cell volume =         132.507502 Angs**3

  Temperature of configuration =  0.000     K

  Pressure of configuration =         0.000 GPa

  Fractional coordinates of asymmetric unit :

   No.  Atomic       x           y          z         Charge      Occupancy
        Label      (Frac)      (Frac)     (Frac)        (e)         (Frac)
      1 Sb    c    0.396797    0.396797    0.396797      0.0000    1.000000
      2 Sb    c    0.603203    0.603203    0.603203      0.0000    1.000000
      3 Te1   c    0.000000    0.000000    0.000000     -0.0000    1.000000
      4 Te2   c    0.784571    0.784571    0.784571     -0.0000    1.000000
      5 Te2   c    0.215429    0.215429    0.215429     -0.0000    1.000000

[...]

*  Input for Configuration =  13                                               *

  Formula = Sb2Te3

  Number of irreducible atoms/shells =       5

  Total number atoms/shells =       5

  Dimensionality = 3               :  Bulk

  Cartesian lattice vectors (Angstroms) :

[...]

  Cell parameters (Angstroms/Degrees):

  a =      10.7398    alpha =  23.3000
  b =      10.7398    beta  =  23.3000
  c =      10.7398    gamma =  23.3000

  Initial cell volume =         170.158355 Angs**3

  Temperature of configuration =  0.000     K

  Pressure of configuration =         0.000 GPa

  Fractional coordinates of asymmetric unit :

   No.  Atomic       x           y          z         Charge      Occupancy
        Label      (Frac)      (Frac)     (Frac)        (e)         (Frac)
      1 Sb    c    0.396797    0.396797    0.396797      0.0000    1.000000
      2 Sb    c    0.603203    0.603203    0.603203      0.0000    1.000000
      3 Te1   c    0.000000    0.000000    0.000000     -0.0000    1.000000
      4 Te2   c    0.784571    0.784571    0.784571     -0.0000    1.000000
      5 Te2   c    0.215429    0.215429    0.215429     -0.0000    1.000000

*  General input information                                                   *

  Species output for all configurations :

  Species    Type    Atomic    Atomic    Charge       Radii (Angs)     Library
                     Number     Mass       (e)     Cova   Ionic  VDW   Symbol
    Sb       Core       51     121.75     0.0000   1.460  0.000  2.170
    Te1      Core       52     127.60    -0.0000   1.470  0.000  2.200
    Te2      Core       52     127.60    -0.0000   1.470  0.000  2.200

  Lattice summation method               =    Ewald
  Accuracy factor for lattice sums       =    8.000

  Time limit = Infinity

  Maximum range for interatomic potentials =         8.000000 Angstroms

  Taper potentials to zero over   8.0000 Angstroms using Voter m =  20.0000

  General interatomic potentials :

Atom  Types   Potential         A         B         C         D     Cutoffs(Ang)
  1     2                                                            Min    Max
Sb   c Te2  c Morse         0.110      4.32     3.02     0.00       0.000 12.000
Sb   c Te1  c Morse         0.720E-01  1.64     3.30     0.00       0.000 12.000
Sb   c Sb   c Morse         0.720E-01 0.940     4.29     0.00       0.000 12.000
Te1  c Te1  c Morse         0.650E-01  1.05     4.36     0.00       0.000 12.000
Te2  c Te2  c Morse         0.680E-01  2.75     3.90     0.00       0.000 12.000
Te2  c Te2  c Morse         0.550E-01  1.12     4.30     0.00       0.000 12.000

  Energy shifts for configurations :

      Configuration           Energy (eV)        Scale Factor
             1               -12.0000                 1.000
             2               -12.0000                 1.000
             3               -12.0000                 1.000
             4               -12.0000                 1.000
             5               -12.0000                 1.000
             6               -12.0000                 1.000
             7               -12.0000                 1.000
             8               -12.0000                 1.000
             9               -12.0000                 1.000
            10               -12.0000                 1.000
            11               -12.0000                 1.000
            12               -12.0000                 1.000
            13               -12.0000                 1.000

  Number of variables   =   15
  Number of observables =   26

   Observable no.  Type           Observable    Weight       Reference  Confign
          1        Energy          -16.420000        0.2000                1
          2        Energy          -17.330000        0.2000                2
          3        Energy          -17.910000        0.2000                3
          4        Energy          -18.230000        0.5000                4
          5        Energy          -18.320000        0.5000                5
          6        Energy          -18.240000        0.5000                6
          7        Energy          -18.010000        0.2000                7
          8        Energy          -17.660000        0.2000                8
          9        Energy          -17.230000        0.2000                9
         10        Energy          -16.720000        0.2000               10
         11        Energy          -16.160000        0.2000               11
         12        Energy          -18.310000        0.1000               12
         13        Elastic Const    64.998000        0.1000    1  1       12
         14        Elastic Const    64.998000        0.1000    2  2       12
         15        Elastic Const    15.380460        0.2000    1  2       12
         16        Elastic Const    11.748970        0.2000    1  3       12
         17        Elastic Const    15.900000        0.2000    3  3       12
         18        Elastic Const    24.808830        0.2000    4  4       12
         19        Elastic Const    11.801930        0.2000    5  5       12
         20        Elastic Const    11.801930        0.2000    6  6       12
         21        Derivative        0.000000        1.0000    a          13
         22        Derivative        0.000000        1.0000    b          13
         23        Derivative        0.000000        1.0000    c          13
         24        Derivative        0.000000        1.0000    alpha      13
         25        Derivative        0.000000        1.0000    beta       13
         26        Derivative        0.000000        1.0000    gamma      13

  Variables :

     Parameter No.       Parameter Value          Parameter Type  Species
             1                -12.000000          Energy shift        0
             2                  0.110000          Morse  De
             3                  4.320000          Morse  a0
             4                  0.072000          Morse  De
             5                  1.640000          Morse  a0
             6                  3.300000          Morse  r0
             7                  0.072000          Morse  De
             8                  0.940000          Morse  a0
             9                  4.290000          Morse  r0
            10                  0.065000          Morse  De
            11                  1.050000          Morse  a0
            12                  0.068000          Morse  De
            13                  2.750000          Morse  a0
            14                  0.055000          Morse  De
            15                  1.120000          Morse  a0

  Symmetry not used for fitting
  First derivatives of residuals to be used in fitting

  Maximum no. of cycles   =       5000
  Maximum step size       =  1000.0000
  Tolerance on parameters =  0.0000100
  Tolerance on function   =  0.0000100
  Tolerance on gradient   =  0.0001000
  Differencing interval   =  0.0001000

  Dumpfile to be written after every cycle

  Start of fitting :

  ** Hessian calculated **
  ** Hessian calculated **
  ** Hessian calculated **

  **** Fit completed successfully ****

  Final sum of squares =           255.774356

  Final gradient norm  =            16.022244

  Final values of parameters :

 Parameter No.    Parameter        Parameter      Parameter Type  Species
                  Original         Final
         1            -12.000000       -15.055221 Energy shift        0
         2              0.110000         0.148358 Morse  De
         3              4.320000         4.163452 Morse  a0
         4              0.072000         0.246761 Morse  De
         5              1.640000         1.146343 Morse  a0
         6              3.300000         3.026405 Morse  r0
         7              0.072000         0.049400 Morse  De
         8              0.940000         1.177690 Morse  a0
         9              4.290000         4.855933 Morse  r0
        10              0.065000         0.049656 Morse  De
        11              1.050000         0.998026 Morse  a0
        12              0.068000         0.069769 Morse  De
        13              2.750000         3.868897 Morse  a0
        14              0.055000         0.011927 Morse  De
        15              1.120000         1.129743 Morse  a0

  Final values of numerical parameter gradients :

     Parameter No.       Parameter Gradient      Parameter Type  Species
             1                  9.846910          Energy shift        0
             2                 -0.188536          Morse  De
             3                 -0.740827          Morse  a0
             4                 -3.274110          Morse  De
             5                 -5.583912          Morse  a0
             6                  4.074751          Morse  r0
             7                 -2.002707          Morse  De
             8                 -8.753519          Morse  a0
             9                  1.727236          Morse  r0
            10                 -0.195771          Morse  De
            11                 -0.836669          Morse  a0
            12                 -1.345778          Morse  De
            13                 -1.515673          Morse  a0
            14                 -0.316128          Morse  De
            15                 -3.478202          Morse  a0

  Final values of residuals :

   Observable no.  Type            Observable   Calculated    Residual  Error(%)
          1        Energy           -16.42000    -15.05415      0.37311    8.318
          2        Energy           -17.33000    -17.08602      0.01191    1.408
          3        Energy           -17.91000    -18.02874      0.00282   -0.663
          4        Energy           -18.23000    -18.38007      0.01126   -0.823
          5        Energy           -18.32000    -18.41968      0.00497   -0.544
          6        Energy           -18.24000    -18.30348      0.00201   -0.348
          7        Energy           -18.01000    -18.11707      0.00229   -0.594
          8        Energy           -17.66000    -17.90485      0.01199   -1.386
          9        Energy           -17.23000    -17.69002      0.04232   -2.670
         10        Energy           -16.72000    -17.48317      0.11649   -4.564
         11        Energy           -16.16000    -17.28950      0.25515   -6.989
         12        Energy           -18.31000    -18.41972      0.00120   -0.599
         13        Elastic Const     64.99800     44.68298     41.26998  -31.255
         14        Elastic Const     64.99800     36.49795     81.22527  -43.848
         15        Elastic Const     15.38046     21.00955      6.33734   36.599
         16        Elastic Const     11.74897     24.81361     34.13695  111.198
         17        Elastic Const     15.90000     32.23610     53.37364  102.743
         18        Elastic Const     24.80883     12.52298     30.18841  -49.522
         19        Elastic Const     11.80193     16.77670      4.94966   42.152
         20        Elastic Const     11.80193     12.87243      0.22919    9.071
         21        Derivative         0.00000      1.51383      2.29168
         22        Derivative         0.00000      0.67993      0.46231
         23        Derivative         0.00000      0.65596      0.43028
         24        Derivative         0.00000      0.02198      0.00048
         25        Derivative         0.00000      0.10661      0.01137
         26        Derivative         0.00000      0.17957      0.03224

  Comparison of initial and final observables :

   Observable no.  Type            Observable   Initial       Final
          1        Energy           -16.42000    -12.48514    -15.05415
          2        Energy           -17.33000    -13.93186    -17.08602
          3        Energy           -17.91000    -14.59836    -18.02874
          4        Energy           -18.23000    -14.83002    -18.38007
          5        Energy           -18.32000    -14.82742    -18.41968
          6        Energy           -18.24000    -14.70618    -18.30348
          7        Energy           -18.01000    -14.53182    -18.11707
          8        Energy           -17.66000    -14.33840    -17.90485
          9        Energy           -17.23000    -14.14440    -17.69002
         10        Energy           -16.72000    -13.95790    -17.48317
         11        Energy           -16.16000    -13.78307    -17.28950
         12        Energy           -18.31000    -14.82751    -18.41972
         13        Elastic Const     64.99800     29.21063     44.68298
         14        Elastic Const     64.99800     28.18407     36.49795
         15        Elastic Const     15.38046     15.22899     21.00955
         16        Elastic Const     11.74897     20.91783     24.81361
         17        Elastic Const     15.90000     22.20391     32.23610
         18        Elastic Const     24.80883     12.08558     12.52298
         19        Elastic Const     11.80193     19.12970     16.77670
         20        Elastic Const     11.80193     13.38155     12.87243
         21        Derivative         0.00000      0.41523      1.51383
         22        Derivative         0.00000      1.67614      0.67993
         23        Derivative         0.00000      1.71239      0.65596
         24        Derivative         0.00000     -0.03324      0.02198
         25        Derivative         0.00000     -0.16120      0.10661
         26        Derivative         0.00000     -0.27152      0.17957

  Maximum range for interatomic potentials =         8.000000 Angstroms

  Taper potentials to zero over   8.0000 Angstroms using Voter m =  20.0000

  General interatomic potentials :

Atom  Types   Potential         A         B         C         D     Cutoffs(Ang)
  1     2                                                            Min    Max
Sb   c Te2  c Morse         0.148      4.16     3.02     0.00       0.000 12.000
Sb   c Te1  c Morse         0.247      1.15     3.03     0.00       0.000 12.000
Sb   c Sb   c Morse         0.494E-01  1.18     4.86     0.00       0.000 12.000
Te1  c Te1  c Morse         0.497E-01 0.998     4.36     0.00       0.000 12.000
Te2  c Te2  c Morse         0.698E-01  3.87     3.90     0.00       0.000 12.000
Te2  c Te2  c Morse         0.119E-01  1.13     4.30     0.00       0.000 12.000

  Energy shifts for configurations :

      Configuration           Energy (eV)        Scale Factor
             1               -15.0552                 1.000
             2               -15.0552                 1.000
             3               -15.0552                 1.000
             4               -15.0552                 1.000
             5               -15.0552                 1.000
             6               -15.0552                 1.000
             7               -15.0552                 1.000
             8               -15.0552                 1.000
             9               -15.0552                 1.000
            10               -15.0552                 1.000
            11               -15.0552                 1.000
            12               -15.0552                 1.000
            13               -15.0552                 1.000

  Total time to end of fitting =      50.9832 seconds

*  Output for configuration   1                                                *

!! WARNING : No variables to optimise - single point performed

  Components of energy :

  Interatomic potentials     =           0.00107523 eV
  Monopole - monopole (real) =           0.00000000 eV
  Monopole - monopole (recip)=           0.00000000 eV
  Monopole - monopole (total)=           0.00000000 eV
  Energy shift               =         -15.05522067 eV
  Total lattice energy       =         -15.05414544 eV
  Total lattice energy       =           -1452.4949 kJ/(mole unit cells)

  Elastic Constant Matrix: (Units=GPa)

  Indices      1         2         3         4         5         6
       1     25.4863   70.6365  159.2451   -0.0000   28.8069    0.0000
       2     70.6365   25.4863  159.2451   -0.0000  -28.8069    0.0000
       3    159.2451  159.2451  217.6864   -0.0000    0.0000    0.0000
       4     -0.0000   -0.0000   -0.0000   56.2121   -0.0000  -28.8069
       5     28.8069  -28.8069    0.0000   -0.0000   56.2121   -0.0000
       6      0.0000    0.0000    0.0000  -28.8069   -0.0000  -22.5751

  Elastic Compliance Matrix: (Units=1/GPa)

[...]

 Mechanical properties :

  Convention :                    Reuss         Voigt         Hill
  Bulk  Modulus (GPa)     =     282.44249     116.32360     199.38305
  Shear Modulus (GPa)     =     -90.12393       9.93866     -40.09264
  Velocity S-wave (km/s)  =     -10.71571       3.55848      -7.14716
  Velocity P-wave (km/s)  =      14.37904      12.84878      13.63539
  Compressibility (1/GPa) =    0.00354054
  Stress axis :                     x             y             z
  Youngs Moduli (GPa)     =     -96.62851     -96.62851    -309.95113
  Poissons Ratio (x)      =                     0.29398       1.65668
  Poissons Ratio (y)      =       0.29398                     1.65668
  Poissons Ratio (z)      =       0.51648       0.51648

  Piezoelectric Strain Matrix: (Units=C/m**2)

  Indices      1         2         3         4         5         6
       x    -0.00000  -0.00000  -0.00000  -0.00000  -0.00000  -0.00000
       y    -0.00000  -0.00000  -0.00000  -0.00000  -0.00000  -0.00000
       z    -0.00000  -0.00000  -0.00000  -0.00000  -0.00000  -0.00000

  Piezoelectric Stress Matrix: (Units=10**-11 C/N)

[...]

  Static dielectric constant tensor :

              x         y         z
       x     1.00000   0.00000   0.00000
       y     0.00000   1.00000   0.00000
       z     0.00000   0.00000   1.00000

  Static refractive indices :

    1 =    1.00000      2 =    1.00000      3 =    1.00000

  Time to end of properties =      50.9872 seconds

[...]

!! WARNING : No variables to optimise - single point performed

[...]

  Time to end of properties =      51.0032 seconds

*  Output for configuration  13                                                *

[...]

  Number of variables =      6

  Maximum number of calculations  =          1000
  Maximum Hessian update interval =            10
  Maximum step size               =   1.000000000
  Maximum parameter tolerance     =   0.000010000
  Maximum function  tolerance     =   0.000010000
  Maximum gradient  tolerance     =   0.001000000
  Maximum gradient  component     =   0.010000000

  Symmetry not applied to optimisation

  Cell parameters to be optimised using strains

  Newton-Raphson optimiser to be used

  BFGS hessian update to be used

  Dumpfile to be written after every cycle

  Start of bulk optimisation :

  ** Hessian calculated **

  **** Optimisation achieved ****

  Final energy =     -18.44233343 eV
  Final Gnorm  =       0.00000087

  Components of energy :

  Interatomic potentials     =          -3.38711277 eV
  Monopole - monopole (real) =           0.00000000 eV
  Monopole - monopole (recip)=           0.00000000 eV
  Monopole - monopole (total)=           0.00000000 eV
  Energy shift               =         -15.05522067 eV
  Total lattice energy       =         -18.44233343 eV
  Total lattice energy       =           -1779.4033 kJ/(mole unit cells)

  Final fractional coordinates of atoms :

   No.  Atomic        x           y          z          Radius
        Label       (Frac)      (Frac)     (Frac)       (Angs)
     1  Sb    c     0.396797    0.396797    0.396797    0.000000
     2  Sb    c     0.603203    0.603203    0.603203    0.000000
     3  Te1   c     0.000000    0.000000    0.000000    0.000000
     4  Te2   c     0.784571    0.784571    0.784571    0.000000
     5  Te2   c     0.215429    0.215429    0.215429    0.000000

  Final Cartesian lattice vectors (Angstroms) :

       10.401553   -0.087909   -0.052193
        9.518496    4.195028   -0.052193
        9.518496    1.962525    3.708029

  Final cell parameters and derivatives :

       a           10.402055 Angstrom     dE/de1(xx)     0.000005 eV/strain
       b           10.402055 Angstrom     dE/de2(yy)     0.000001 eV/strain
       c           10.402055 Angstrom     dE/de3(zz)     0.000001 eV/strain
       alpha       24.268146 Degrees      dE/de4(yz)     0.000000 eV/strain
       beta        24.268146 Degrees      dE/de5(xz)     0.000000 eV/strain
       gamma       24.268146 Degrees      dE/de6(xy)     0.000001 eV/strain

  Primitive cell volume =           167.120075 Angs**3

  Density of cell =      6.223143 g/cm**3

  Non-primitive cell volume =           167.120075 Angs**3

  Final internal derivatives :

   No.  Atomic          x             y             z           Radius
        Label          (eV)          (eV)          (eV)        (eV/Angs)
      1 Sb    c       0.000000      0.000000      0.000000      0.000000
      2 Sb    c       0.000000      0.000000      0.000000      0.000000
      3 Te1   c       0.000000      0.000000      0.000000      0.000000
      4 Te2   c       0.000000      0.000000      0.000000      0.000000
      5 Te2   c       0.000000      0.000000      0.000000      0.000000
  Maximum abs         0.000000      0.000000      0.000000      0.000000

  Elastic Constant Matrix: (Units=GPa)

[...]

  Elastic Compliance Matrix: (Units=1/GPa)

  Indices      1         2         3         4         5         6
       1    0.055006 -0.023929 -0.036410  0.022887  0.004229  0.007123
       2   -0.023929  0.072823 -0.029375 -0.030887 -0.043026 -0.014796
       3   -0.036410 -0.029375  0.086018  0.006689  0.032442 -0.003029
       4    0.022887 -0.030887  0.006689  0.169173 -0.017933 -0.093101
       5    0.004229 -0.043026  0.032442 -0.017933  0.085894  0.044321
       6    0.007123 -0.014796 -0.003029 -0.093101  0.044321  0.134231

 Mechanical properties :

  Convention :                    Reuss         Voigt         Hill
  Bulk  Modulus (GPa)     =      29.05261      34.05327      31.55294
  Shear Modulus (GPa)     =       6.29685      13.47149       9.88417
  Velocity S-wave (km/s)  =       3.18095       4.65268       3.98534
  Velocity P-wave (km/s)  =       7.75732       9.14241       8.47820
  Compressibility (1/GPa) =    0.03442032
  Stress axis :                     x             y             z
  Youngs Moduli (GPa)     =      18.17976      13.73185      11.62544
  Poissons Ratio (x)      =                     0.32859       0.42328
  Poissons Ratio (y)      =       0.43503                     0.34150
  Poissons Ratio (z)      =       0.66192       0.40338

  Piezoelectric Strain Matrix: (Units=C/m**2)

[...]

  Piezoelectric Stress Matrix: (Units=10**-11 C/N)

  Indices      1         2         3         4         5         6
       x     0.00000   0.00000   0.00000   0.00000   0.00000   0.00000
       y     0.00000   0.00000   0.00000   0.00000   0.00000   0.00000
       z     0.00000   0.00000   0.00000   0.00000   0.00000   0.00000

  Static dielectric constant tensor :

              x         y         z
       x     1.00000   0.00000   0.00000
       y     0.00000   1.00000   0.00000
       z     0.00000   0.00000   1.00000

  Static refractive indices :

    1 =    1.00000      2 =    1.00000      3 =    1.00000

  Time to end of optimisation =      51.0312 seconds

  Timing analysis for GULP :

  Task / Subroutine                                          Time (Seconds)
  Calculation of real space energy and derivatives               48.7350
  Sum of squares for fitting                                      1.3761
  Global summation overhead                                       0.0400

  Dump file written as sb2te3.res

  **** GULP has completed with  12 warnings - beware! ****

  Job Finished at 12:15.39 21st June       2010