  Job Started  at 16:44.55 20th June       2010

  Number of CPUs =     1

  Total number of configurations input = 106

*  Input for Configuration =   1                                               *

  Formula = Sb2Te3

  Number of irreducible atoms/shells =       5

  Total number atoms/shells =       5

  Dimensionality = 3               :  Bulk

  Cartesian lattice vectors (Angstroms) :

       -2.504286    0.000000   10.443767
        1.252143   -2.168775   10.443767
        1.252143    2.168775   10.443767

  Cell parameters (Angstroms/Degrees):

  a =      10.7398    alpha =  23.3006
  b =      10.7398    beta  =  23.3006
  c =      10.7398    gamma =  23.3006

  Initial cell volume =         170.167643 Angs**3

  Temperature of configuration =  0.000     K

  Pressure of configuration =         0.000 GPa

  Fractional coordinates of asymmetric unit :

   No.  Atomic       x           y          z         Charge      Occupancy
        Label      (Frac)      (Frac)     (Frac)        (e)         (Frac)
      1 Sb    c    0.369021    0.369021    0.369021      0.6200    1.000000
      2 Sb    c    0.603203    0.603203    0.603203      0.6200    1.000000
      3 Te1   c    0.000000    0.000000    0.000000     -0.5000    1.000000
      4 Te2   c    0.784571    0.784571    0.784571     -0.3700    1.000000
      5 Te2   c    0.215429    0.215429    0.215429     -0.3700    1.000000

[...]

*  Input for Configuration = 106                                               *

  Formula = Sb2Te3

  Number of irreducible atoms/shells =       5

  Total number atoms/shells =       5

  Dimensionality = 3               :  Bulk

  Cartesian lattice vectors (Angstroms) :

[...]

  Cell parameters (Angstroms/Degrees):

  a =      10.7398    alpha =  23.3000
  b =      10.7398    beta  =  23.3000
  c =      10.7398    gamma =  23.3000

  Initial cell volume =         170.158355 Angs**3

  Temperature of configuration =  0.000     K

  Pressure of configuration =         0.000 GPa

  Fractional coordinates of asymmetric unit :

   No.  Atomic       x           y          z         Charge      Occupancy
        Label      (Frac)      (Frac)     (Frac)        (e)         (Frac)
      1 Sb    c    0.396797    0.396797    0.396797      0.6200    1.000000
      2 Sb    c    0.603203    0.603203    0.603203      0.6200    1.000000
      3 Te1   c    0.000000    0.000000    0.000000     -0.5000    1.000000
      4 Te2   c    0.784571    0.784571    0.784571     -0.3700    1.000000
      5 Te2   c    0.215429    0.215429    0.215429     -0.3700    1.000000

*  General input information                                                   *

  Species output for all configurations :

  Species    Type    Atomic    Atomic    Charge       Radii (Angs)     Library
                     Number     Mass       (e)     Cova   Ionic  VDW   Symbol
    Sb       Core       51     121.75     0.6200   1.460  0.000  2.170
    Te1      Core       52     127.60    -0.5000   1.470  0.000  2.200
    Te2      Core       52     127.60    -0.3700   1.470  0.000  2.200

  Lattice summation method               =    Ewald
  Accuracy factor for lattice sums       =    8.000

  Time limit = Infinity

  Maximum range for interatomic potentials =         8.000000 Angstroms

  Taper potentials to zero over   8.0000 Angstroms using Voter m =  20.0000

  General interatomic potentials :

Atom  Types   Potential         A         B         C         D     Cutoffs(Ang)
  1     2                                                            Min    Max
Sb   c Te2  c Morse         0.100      3.65     3.03     0.00       0.000 12.000
Sb   c Te1  c Morse         0.100      1.18     3.20     0.00       0.000 12.000
Sb   c Sb   c Morse         0.500E-01  1.00     4.34     0.00       0.000 12.000
Te1  c Te1  c Morse         0.730E-01  1.07     4.34     0.00       0.000 12.000
Te2  c Te2  c Morse         0.740E-01  2.72     3.93     0.00       0.000 12.000

  Energy shifts for configurations :

      Configuration           Energy (eV)        Scale Factor
             1               -6.78000                 1.000
             2               -6.78000                 1.000
             3               -6.78000                 1.000
             4               -6.78000                 1.000
             5               -6.78000                 1.000
             6               -6.78000                 1.000
             7               -6.78000                 1.000
             8               -6.78000                 1.000
             9               -6.78000                 1.000
            10               -6.78000                 1.000
            11               -6.78000                 1.000
            12               -6.78000                 1.000
            13               -6.78000                 1.000
            14               -6.78000                 1.000
            15               -6.78000                 1.000
            16               -6.78000                 1.000
            17               -6.78000                 1.000
            18               -6.78000                 1.000
            19               -6.78000                 1.000
            20               -6.78000                 1.000
            21               -6.78000                 1.000
            22               -6.78000                 1.000
            23               -6.78000                 1.000
            24               -6.78000                 1.000
            25               -6.78000                 1.000
            26               -6.78000                 1.000
            27               -6.78000                 1.000
            28               -6.78000                 1.000
            29               -6.78000                 1.000
            30               -6.78000                 1.000
            31               -6.78000                 1.000
            32               -6.78000                 1.000
            33               -6.78000                 1.000
            34               -6.78000                 1.000
            35               -6.78000                 1.000
            36               -6.78000                 1.000
            37               -6.78000                 1.000
            38               -6.78000                 1.000
            39               -6.78000                 1.000
            40               -6.78000                 1.000
            41               -6.78000                 1.000
            42               -6.78000                 1.000
            43               -6.78000                 1.000
            44               -6.78000                 1.000
            45               -6.78000                 1.000
            46               -6.78000                 1.000
            47               -6.78000                 1.000
            48               -6.78000                 1.000
            49               -6.78000                 1.000
            50               -6.78000                 1.000
            51               -6.78000                 1.000
            52               -6.78000                 1.000
            53               -6.78000                 1.000
            54               -6.78000                 1.000
            55               -6.78000                 1.000
            56               -6.78000                 1.000
            57               -6.78000                 1.000
            58               -6.78000                 1.000
            59               -6.78000                 1.000
            60               -6.78000                 1.000
[...]
            92               -6.78000                 1.000
            93               -6.78000                 1.000
            94               -6.78000                 1.000
            95               -6.78000                 1.000
            96               -6.78000                 1.000
            97               -6.78000                 1.000
            98               -6.78000                 1.000
            99               -6.78000                 1.000
           100               -6.78000                 1.000
           101               -6.78000                 1.000
           102               -6.78000                 1.000
           103               -6.78000                 1.000
           104               -6.78000                 1.000
           105               -6.78000                 1.000
           106               -6.78000                 1.000

  Number of variables   =   16
  Number of observables =  111

   Observable no.  Type           Observable    Weight       Reference  Confign
          1        Energy          -16.066600        0.0000                1
          2        Energy          -16.584500        0.0000                2
          3        Energy          -17.060200        0.0000                3
          4        Energy          -17.480900        0.0000                4
          5        Energy          -17.831400        0.1000                5
          6        Energy          -18.095000        0.5000                6
          7        Energy          -18.258200        0.5000                7
          8        Energy          -18.313000        1.0000                8
          9        Energy          -18.257900        0.5000                9
         10        Energy          -18.096800        0.2000               10
         11        Energy          -17.838700        0.1000               11
         12        Energy          -17.496800        0.0000               12
         13        Energy          -17.088900        0.0000               13
         14        Energy          -16.635400        0.0000               14
         15        Energy          -16.162800        0.0000               15
         16        Energy          -14.700000        0.0000               16
         17        Energy          -15.230000        0.0000               17
         18        Energy          -15.880000        0.0000               18
         19        Energy          -16.600000        0.0000               19
         20        Energy          -17.270000        0.1000               20
         21        Energy          -17.830000        0.2000               21
         22        Energy          -18.190000        0.5000               22
         23        Energy          -18.310000        1.0000               23
         24        Energy          -18.190000        0.5000               24
         25        Energy          -17.820000        0.2000               25
         26        Energy          -17.250000        0.1000               26
         27        Energy          -16.540000        0.0000               27
         28        Energy          -15.740000        0.0000               28
         29        Energy          -14.900000        0.0000               29
         30        Energy          -14.070000        0.0000               30
         31        Energy          -11.870000        0.0000               31
         32        Energy          -12.400000        0.0000               32
[...]
         97        Energy           -18.23000    -13.97508    -18.19049
         98        Energy           -18.32000    -13.84350    -18.23023
         99        Energy           -18.24000    -13.63332    -18.16854
        100        Energy           -18.01000    -13.38858    -18.05242
        101        Energy           -17.66000    -13.13372    -17.90953
        102        Energy           -17.23000    -12.88265    -17.75619
        103        Energy           -16.72000    -12.64203    -17.60134
        104        Energy           -16.16000    -12.41557    -17.45029
        105        Energy           -18.31000    -13.84365    -18.23023
        106        Derivative         0.00000      3.47831      1.25664
        107        Derivative         0.00000      2.77480     -0.08944
        108        Derivative         0.00000      2.75458     -0.12814
        109        Derivative         0.00000      0.01854      0.03548
        110        Derivative         0.00000      0.08994      0.17209
        111        Derivative         0.00000      0.15149      0.28986

  Maximum range for interatomic potentials =         8.000000 Angstroms

  Taper potentials to zero over   8.0000 Angstroms using Voter m =  20.0000

  General interatomic potentials :

Atom  Types   Potential         A         B         C         D     Cutoffs(Ang)
  1     2                                                            Min    Max
Sb   c Te2  c Morse         0.431E-01  3.84     3.14     0.00       0.000 12.000
Sb   c Te1  c Morse         0.618E-01 0.948     3.17     0.00       0.000 12.000
Sb   c Sb   c Morse         0.258E-01  1.15     4.45     0.00       0.000 12.000
Te1  c Te1  c Morse         0.553E-01  1.06     4.36     0.00       0.000 12.000
Te2  c Te2  c Morse         0.166E-01  2.66     4.09     0.00       0.000 12.000

  Energy shifts for configurations :

      Configuration           Energy (eV)        Scale Factor
             1               -12.4247                 1.000
             2               -12.4247                 1.000
             3               -12.4247                 1.000
             4               -12.4247                 1.000
             5               -12.4247                 1.000
             6               -12.4247                 1.000
             7               -12.4247                 1.000
             8               -12.4247                 1.000
             9               -12.4247                 1.000
            10               -12.4247                 1.000
            11               -12.4247                 1.000
            12               -12.4247                 1.000
            13               -12.4247                 1.000
            14               -12.4247                 1.000
            15               -12.4247                 1.000
            16               -12.4247                 1.000
            17               -12.4247                 1.000
            18               -12.4247                 1.000
            19               -12.4247                 1.000
            20               -12.4247                 1.000
            21               -12.4247                 1.000
            22               -12.4247                 1.000
            23               -12.4247                 1.000
            24               -12.4247                 1.000
            25               -12.4247                 1.000
            26               -12.4247                 1.000
            27               -12.4247                 1.000
            28               -12.4247                 1.000
            29               -12.4247                 1.000
            30               -12.4247                 1.000
            31               -12.4247                 1.000
            32               -12.4247                 1.000
            33               -12.4247                 1.000
            34               -12.4247                 1.000
            35               -12.4247                 1.000
            36               -12.4247                 1.000
            37               -12.4247                 1.000
            38               -12.4247                 1.000
            39               -12.4247                 1.000
            40               -12.4247                 1.000
            41               -12.4247                 1.000
            42               -12.4247                 1.000
            43               -12.4247                 1.000
            44               -12.4247                 1.000
            45               -12.4247                 1.000
            46               -12.4247                 1.000
            47               -12.4247                 1.000
            48               -12.4247                 1.000
            49               -12.4247                 1.000
            50               -12.4247                 1.000
            51               -12.4247                 1.000
            52               -12.4247                 1.000
            53               -12.4247                 1.000
            54               -12.4247                 1.000
            55               -12.4247                 1.000
            56               -12.4247                 1.000
            57               -12.4247                 1.000
            58               -12.4247                 1.000
            59               -12.4247                 1.000
            60               -12.4247                 1.000
[...]
            92               -12.4247                 1.000
            93               -12.4247                 1.000
            94               -12.4247                 1.000
            95               -12.4247                 1.000
            96               -12.4247                 1.000
            97               -12.4247                 1.000
            98               -12.4247                 1.000
            99               -12.4247                 1.000
           100               -12.4247                 1.000
           101               -12.4247                 1.000
           102               -12.4247                 1.000
           103               -12.4247                 1.000
           104               -12.4247                 1.000
           105               -12.4247                 1.000
           106               -12.4247                 1.000

  Total time to end of fitting =     541.9979 seconds

*  Output for configuration   1                                                *

!! WARNING : No variables to optimise - single point performed

  Components of energy :

  Interatomic potentials     =          -1.04714275 eV
  Monopole - monopole (real) =          -1.17953623 eV
  Monopole - monopole (recip)=          -3.08937235 eV
  Monopole - monopole (total)=          -4.26890857 eV
  Energy shift               =         -12.42471915 eV
  Total lattice energy       =         -17.74077048 eV
  Total lattice energy       =           -1711.7132 kJ/(mole unit cells)

  Born effective charge tensors :

  Atom             x           y             z
   1 Sb    x       0.6200      0.0000      0.0000
           y       0.0000      0.6200      0.0000
           z       0.0000      0.0000      0.6200
   2 Sb    x       0.6200      0.0000      0.0000
           y       0.0000      0.6200      0.0000
           z       0.0000      0.0000      0.6200
   3 Te1   x      -0.5000      0.0000      0.0000
           y       0.0000     -0.5000      0.0000
           z       0.0000      0.0000     -0.5000
   4 Te2   x      -0.3700      0.0000      0.0000
           y       0.0000     -0.3700      0.0000
           z       0.0000      0.0000     -0.3700
   5 Te2   x      -0.3700      0.0000      0.0000
           y       0.0000     -0.3700      0.0000
           z       0.0000      0.0000     -0.3700

  Elastic Constant Matrix: (Units=GPa)

  Indices      1         2         3         4         5         6
       1    -96.4085 -100.3065 -119.7379   -0.0000    6.1638    0.0000
       2   -100.3065  -96.4085 -119.7379   -0.0000   -6.1638    0.0000
       3   -119.7379 -119.7379 -123.1313   -0.0000   -0.0000    0.0000
       4     -0.0000   -0.0000   -0.0000   60.6666   -0.0000   -6.1638
       5      6.1638   -6.1638   -0.0000   -0.0000   60.6666    0.0000
       6      0.0000    0.0000    0.0000   -6.1638    0.0000    1.9490

  Elastic Compliance Matrix: (Units=1/GPa)

[...]

 Mechanical properties :

  Convention :                    Reuss         Voigt         Hill
  Bulk  Modulus (GPa)     =    -123.77146    -110.61253    -117.19199
  Shear Modulus (GPa)     =       2.92459      26.24536      14.58497
  Velocity S-wave (km/s)  =       2.18752       6.55308       4.88508
  Velocity P-wave (km/s)  =      14.00484      11.12331      12.64641
  Compressibility (1/GPa) =   -0.00807941
  Stress axis :                     x             y             z
  Youngs Moduli (GPa)     =       4.93027       4.93027      22.63449
  Poissons Ratio (x)      =                     0.86366       0.60869
  Poissons Ratio (y)      =       0.86366                     0.60869
  Poissons Ratio (z)      =       0.13258       0.13258

  Piezoelectric Strain Matrix: (Units=C/m**2)

  Indices      1         2         3         4         5         6
       x     4.26437  -4.26437  -0.00000  -0.00000  33.04428   0.00000
       y    -0.00000  -0.00000  -0.00000  33.04429  -0.00000  -4.26437
       z   -28.15351 -28.15351 -31.70645  -0.00000  -0.00000   0.00000

  Piezoelectric Stress Matrix: (Units=10**-11 C/N)

[...]

  Static dielectric constant tensor :

              x         y         z
       x   -18.51455   0.00000   0.00000
       y     0.00000 -18.51455   0.00000
       z     0.00000   0.00000   6.14324

  Static refractive indices :

    1 =   -4.30285      2 =   -4.30285      3 =    2.47856

  Time to end of properties =     542.0019 seconds

[...]

!! WARNING : No variables to optimise - single point performed

[...]

  Time to end of properties =     542.2499 seconds

*  Output for configuration 106                                                *

[...]

  Number of variables =      6

  Maximum number of calculations  =          1000
  Maximum Hessian update interval =            10
  Maximum step size               =   1.000000000
  Maximum parameter tolerance     =   0.000010000
  Maximum function  tolerance     =   0.000010000
  Maximum gradient  tolerance     =   0.001000000
  Maximum gradient  component     =   0.010000000

  Symmetry not applied to optimisation

  Cell parameters to be optimised using strains

  Newton-Raphson optimiser to be used

  BFGS hessian update to be used

  Dumpfile to be written after every cycle

  Start of bulk optimisation :

  ** Hessian calculated **

  **** Optimisation achieved ****

  Final energy =     -18.29193673 eV
  Final Gnorm  =       0.00006799

  Components of energy :

  Interatomic potentials     =          -1.08804756 eV
  Monopole - monopole (real) =          -1.17508378 eV
  Monopole - monopole (recip)=          -3.60408623 eV
  Monopole - monopole (total)=          -4.77917001 eV
  Energy shift               =         -12.42471915 eV
  Total lattice energy       =         -18.29193673 eV
  Total lattice energy       =           -1764.8923 kJ/(mole unit cells)

  Final fractional coordinates of atoms :

   No.  Atomic        x           y          z          Radius
        Label       (Frac)      (Frac)     (Frac)       (Angs)
     1  Sb    c     0.396797    0.396797    0.396797    0.000000
     2  Sb    c     0.603203    0.603203    0.603203    0.000000
     3  Te1   c     0.000000    0.000000    0.000000    0.000000
     4  Te2   c     0.784571    0.784571    0.784571    0.000000
     5  Te2   c     0.215429    0.215429    0.215429    0.000000

  Final Cartesian lattice vectors (Angstroms) :

        9.911316   -0.252891   -0.150145
        9.002983    4.152643   -0.150145
        9.002983    1.856236    3.717711

  Final cell parameters and derivatives :

       a            9.915679 Angstrom     dE/de1(xx)     0.000313 eV/strain
       b            9.915679 Angstrom     dE/de2(yy)     0.000186 eV/strain
       c            9.915679 Angstrom     dE/de3(zz)     0.000182 eV/strain
       alpha       26.220148 Degrees      dE/de4(yz)     0.000003 eV/strain
       beta        26.220148 Degrees      dE/de5(xz)     0.000016 eV/strain
       gamma       26.220148 Degrees      dE/de6(xy)     0.000027 eV/strain

  Primitive cell volume =           167.686844 Angs**3

  Density of cell =      6.202109 g/cm**3

  Non-primitive cell volume =           167.686844 Angs**3

  Final internal derivatives :

   No.  Atomic          x             y             z           Radius
        Label          (eV)          (eV)          (eV)        (eV/Angs)
      1 Sb    c       0.000000      0.000000      0.000000      0.000000
      2 Sb    c       0.000000      0.000000      0.000000      0.000000
      3 Te1   c       0.000000      0.000000      0.000000      0.000000
      4 Te2   c       0.000000      0.000000      0.000000      0.000000
      5 Te2   c       0.000000      0.000000      0.000000      0.000000
  Maximum abs         0.000000      0.000000      0.000000      0.000000

  Born effective charge tensors :

  Atom             x           y             z
   1 Sb    x       0.6200      0.0000      0.0000
           y       0.0000      0.6200      0.0000
           z       0.0000      0.0000      0.6200
   2 Sb    x       0.6200      0.0000      0.0000
           y       0.0000      0.6200      0.0000
           z       0.0000      0.0000      0.6200
   3 Te1   x      -0.5000      0.0000      0.0000
           y       0.0000     -0.5000      0.0000
           z       0.0000      0.0000     -0.5000
   4 Te2   x      -0.3700      0.0000      0.0000
           y       0.0000     -0.3700      0.0000
           z       0.0000      0.0000     -0.3700
   5 Te2   x      -0.3700      0.0000      0.0000
           y       0.0000     -0.3700      0.0000
           z       0.0000      0.0000     -0.3700

  Elastic Constant Matrix: (Units=GPa)

[...]

  Elastic Compliance Matrix: (Units=1/GPa)

  Indices      1         2         3         4         5         6
       1    0.089627 -0.029176 -0.051646  0.041207 -0.004146 -0.006984
       2   -0.029176  0.018454  0.051053 -0.069493 -0.133044  0.037636
       3   -0.051646  0.051053  0.041830  0.026624  0.129129 -0.044229
       4    0.041207 -0.069493  0.026624 -0.165676  0.065895 -0.174445
       5   -0.004146 -0.133044  0.129129  0.065895  0.140336  0.101309
       6   -0.006984  0.037636 -0.044229 -0.174445  0.101309  0.250823

 Mechanical properties :

  Convention :                    Reuss         Voigt         Hill
  Bulk  Modulus (GPa)     =      11.06522      11.81034      11.43778
  Shear Modulus (GPa)     =      10.75137       0.35740       5.55439
  Velocity S-wave (km/s)  =       4.16353       0.75912       2.99260
  Velocity P-wave (km/s)  =       6.39956       4.45093       5.51204
  Compressibility (1/GPa) =    0.09037330
  Stress axis :                     x             y             z
  Youngs Moduli (GPa)     =      11.15732      54.18941      23.90625
  Poissons Ratio (x)      =                     1.58103       1.23466
  Poissons Ratio (y)      =       0.32553                    -1.22049
  Poissons Ratio (z)      =       0.57623      -2.76654

  Piezoelectric Strain Matrix: (Units=C/m**2)

[...]

  Piezoelectric Stress Matrix: (Units=10**-11 C/N)

  Indices      1         2         3         4         5         6
       x     0.00000  -0.00000  -0.00000  -0.00000  -0.00000  -0.00000
       y    -0.00000   0.00000  -0.00000   0.00000  -0.00000   0.00001
       z    -0.00000   0.00000   0.00000   0.00000   0.00001  -0.00000

  Static dielectric constant tensor :

              x         y         z
       x     1.55795   0.72993   0.43337
       y     0.72993  -1.83180   0.08935
       z     0.43337   0.08935  -1.92925

  Static refractive indices :

    1 =   -1.40794      2 =   -1.40794      3 =    1.32721

  Time to end of optimisation =     542.3299 seconds

  Timing analysis for GULP :

  Task / Subroutine                                          Time (Seconds)
  Calculation of reciprocal space energy and derivatives         36.8503
  Calculation of real space energy and derivatives              488.0785
  Sum of squares for fitting                                     13.5208
  Global summation overhead                                       0.4960

  Dump file written as sb2te3.res

  **** GULP has completed with 105 warnings - beware! ****

  Job Finished at 17:05.08 20th June       2010