  Job Started  at 12:37.12 21st June       2010

  Number of CPUs =     1

  Total number of configurations input =  13

*  Input for Configuration =   1                                               *

  Formula = Sb2Te3

  Number of irreducible atoms/shells =       5

  Total number atoms/shells =       5

  Dimensionality = 3               :  Bulk

  Cartesian lattice vectors (Angstroms) :

        9.880600    0.000000    0.000000
        9.074801    3.908227    0.000000
        9.074801    1.871044    3.431244

  Cell parameters (Angstroms/Degrees):

  a =       9.8806    alpha =  23.3000
  b =       9.8806    beta  =  23.3000
  c =       9.8806    gamma =  23.3000

  Initial cell volume =         132.499625 Angs**3

  Temperature of configuration =  0.000     K

  Pressure of configuration =         0.000 GPa

  Fractional coordinates of asymmetric unit :

   No.  Atomic       x           y          z         Charge      Occupancy
        Label      (Frac)      (Frac)     (Frac)        (e)         (Frac)
      1 Sb    c    0.396797    0.396797    0.396797      0.0000    1.000000
      2 Sb    c    0.603203    0.603203    0.603203      0.0000    1.000000
      3 Te1   c    0.000000    0.000000    0.000000     -0.0000    1.000000
      4 Te2   c    0.784571    0.784571    0.784571     -0.0000    1.000000
      5 Te2   c    0.215429    0.215429    0.215429     -0.0000    1.000000

[...]

*  Input for Configuration =  13                                               *

  Formula = Sb2Te3

  Number of irreducible atoms/shells =       5

  Total number atoms/shells =       5

  Dimensionality = 3               :  Bulk

  Cartesian lattice vectors (Angstroms) :

[...]

  Cell parameters (Angstroms/Degrees):

  a =      10.7398    alpha =  23.3000
  b =      10.7398    beta  =  23.3000
  c =      10.7398    gamma =  23.3000

  Initial cell volume =         170.158355 Angs**3

  Temperature of configuration =  0.000     K

  Pressure of configuration =         0.000 GPa

  Fractional coordinates of asymmetric unit :

   No.  Atomic       x           y          z         Charge      Occupancy
        Label      (Frac)      (Frac)     (Frac)        (e)         (Frac)
      1 Sb    c    0.396797    0.396797    0.396797      0.0000    1.000000
      2 Sb    c    0.603203    0.603203    0.603203      0.0000    1.000000
      3 Te1   c    0.000000    0.000000    0.000000     -0.0000    1.000000
      4 Te2   c    0.784571    0.784571    0.784571     -0.0000    1.000000
      5 Te2   c    0.215429    0.215429    0.215429     -0.0000    1.000000

*  General input information                                                   *

  Species output for all configurations :

  Species    Type    Atomic    Atomic    Charge       Radii (Angs)     Library
                     Number     Mass       (e)     Cova   Ionic  VDW   Symbol
    Sb       Core       51     121.75     0.0000   1.460  0.000  2.170
    Te1      Core       52     127.60    -0.0000   1.470  0.000  2.200
    Te2      Core       52     127.60    -0.0000   1.470  0.000  2.200

  Lattice summation method               =    Ewald
  Accuracy factor for lattice sums       =    8.000

  Time limit = Infinity

  Maximum range for interatomic potentials =         8.000000 Angstroms

  Taper potentials to zero over   8.0000 Angstroms using Voter m =  20.0000

  General interatomic potentials :

Atom  Types   Potential         A         B         C         D     Cutoffs(Ang)
  1     2                                                            Min    Max
Sb   c Te2  c Morse         0.110      4.32     3.02     0.00       0.000 12.000
Sb   c Te1  c Morse         0.720E-01  1.64     3.30     0.00       0.000 12.000
Sb   c Sb   c Morse         0.720E-01 0.940     4.29     0.00       0.000 12.000
Te1  c Te1  c Morse         0.650E-01  1.05     4.36     0.00       0.000 12.000
Te1  c Te2  c Morse         0.580E-01  1.01     4.34     0.00       0.000 12.000
Te2  c Te2  c Morse         0.680E-01  2.75     3.90     0.00       0.000 12.000
Te2  c Te2  c Morse         0.550E-01  1.12     4.30     0.00       0.000 12.000

  Energy shifts for configurations :

      Configuration           Energy (eV)        Scale Factor
             1               -12.0000                 1.000
             2               -12.0000                 1.000
             3               -12.0000                 1.000
             4               -12.0000                 1.000
             5               -12.0000                 1.000
             6               -12.0000                 1.000
             7               -12.0000                 1.000
             8               -12.0000                 1.000
             9               -12.0000                 1.000
            10               -12.0000                 1.000
            11               -12.0000                 1.000
            12               -12.0000                 1.000
            13               -12.0000                 1.000

!! WARNING : Fitted parameter initially set to zero

!! WARNING : Fitted parameter initially set to zero

  Number of variables   =   24
  Number of observables =   29

   Observable no.  Type           Observable    Weight       Reference  Confign
          1        Energy          -16.420000        0.2000                1
          2        Energy          -17.330000        0.2000                2
          3        Energy          -17.910000        0.2000                3
          4        Energy          -18.230000        0.5000                4
          5        Energy          -18.320000        0.5000                5
          6        Energy          -18.240000        0.5000                6
          7        Energy          -18.010000        0.2000                7
          8        Energy          -17.660000        0.2000                8
          9        Energy          -17.230000        0.2000                9
         10        Energy          -16.720000        0.2000               10
         11        Energy          -16.160000        0.2000               11
         12        Energy          -18.310000        0.1000               12
         13        Elastic Const    64.998000        0.1000    1  1       12
         14        Elastic Const    64.998000        0.1000    2  2       12
         15        Elastic Const    15.380460        0.2000    1  2       12
         16        Elastic Const    11.748970        0.2000    1  3       12
         17        Elastic Const    11.750000        0.2000    2  3       12
         18        Elastic Const    15.300000        0.2000    2  1       12
         19        Elastic Const    11.700000        0.2000    3  1       12
         20        Elastic Const    11.700000        0.2000    3  2       12
         21        Elastic Const    24.808830        0.2000    4  4       12
         22        Elastic Const    11.801930        0.2000    5  5       12
         23        Elastic Const    11.801930        0.2000    6  6       12
         24        Derivative        0.000000        1.0000    a          13
         25        Derivative        0.000000        1.0000    b          13
         26        Derivative        0.000000        1.0000    c          13
         27        Derivative        0.000000        1.0000    alpha      13
         28        Derivative        0.000000        1.0000    beta       13
         29        Derivative        0.000000        1.0000    gamma      13

  Variables :

     Parameter No.       Parameter Value          Parameter Type  Species
             1                -12.000000          Energy shift        0
             2                  0.100000          Charge           Sb    c
             3                  0.100000          Charge           Te1   c
             4                  0.110000          Morse  De
             5                  4.320000          Morse  a0
             6                  3.020000          Morse  r0
             7                  0.072000          Morse  De
             8                  1.640000          Morse  a0
             9                  3.300000          Morse  r0
            10                  0.072000          Morse  De
            11                  0.940000          Morse  a0
            12                  4.290000          Morse  r0
            13                  0.065000          Morse  De
            14                  1.050000          Morse  a0
            15                  4.360000          Morse  r0
            16                  0.058000          Morse  De
            17                  1.010000          Morse  a0
            18                  4.340000          Morse  r0
            19                  0.068000          Morse  De
            20                  2.750000          Morse  a0
            21                  3.900000          Morse  r0
            22                  0.055000          Morse  De
            23                  1.120000          Morse  a0
            24                  4.300000          Morse  r0

  Symmetry not used for fitting
  First derivatives of residuals to be used in fitting

  Maximum no. of cycles   =       5000
  Maximum step size       =  1000.0000
  Tolerance on parameters =  0.0000100
  Tolerance on function   =  0.0000100
  Tolerance on gradient   =  0.0001000
  Differencing interval   =  0.0001000

  Dumpfile to be written after every cycle

  Start of fitting :

  ** Hessian calculated **
  ** Hessian calculated **
  ** Hessian calculated **

  **** Fit completed successfully ****

  Final sum of squares =           180.548596

  Final gradient norm  =           569.738566

  Final values of parameters :

 Parameter No.    Parameter        Parameter      Parameter Type  Species
                  Original         Final
         1            -12.000000       -12.390449 Energy shift        0
         2              0.100000         0.163099 Charge           Sb    c
         3              0.100000         0.086810 Charge           Te1   c
         4              0.110000         0.240016 Morse  De
         5              4.320000         5.663151 Morse  a0
         6              3.020000         2.941086 Morse  r0
         7              0.072000         0.115591 Morse  De
         8              1.640000         1.306263 Morse  a0
         9              3.300000         3.245098 Morse  r0
        10              0.072000         0.099745 Morse  De
        11              0.940000         0.746969 Morse  a0
        12              4.290000         4.428570 Morse  r0
        13              0.065000         0.065821 Morse  De
        14              1.050000         1.110994 Morse  a0
        15              4.360000         4.495305 Morse  r0
        16              0.058000         0.078711 Morse  De
        17              1.010000         0.723649 Morse  a0
        18              4.340000         4.241795 Morse  r0
        19              0.068000         0.042609 Morse  De
        20              2.750000         3.105471 Morse  a0
        21              3.900000         4.238920 Morse  r0
        22              0.055000         0.049431 Morse  De
[...]
            24               -124.125043          Morse  r0

  Final values of residuals :

   Observable no.  Type            Observable   Calculated    Residual  Error(%)
          1        Energy           -16.42000     -9.31165     10.10571   43.291
          2        Energy           -17.33000    -13.67464      2.67233   21.093
          3        Energy           -17.91000    -15.59544      1.07144   12.923
          4        Energy           -18.23000    -16.31130      1.84071   10.525
          5        Energy           -18.32000    -16.45216      1.74442   10.196
          6        Energy           -18.24000    -16.33341      1.81754   10.453
          7        Energy           -18.01000    -16.11171      0.72070   10.540
          8        Energy           -17.66000    -15.85960      0.64829   10.195
          9        Energy           -17.23000    -15.60736      0.52659    9.418
         10        Energy           -16.72000    -15.36573      0.36681    8.100
         11        Energy           -16.16000    -15.14001      0.20808    6.312
         12        Energy           -18.31000    -16.45216      0.34516   10.147
         13        Elastic Const     64.99800     40.24411     61.27550  -38.084
         14        Elastic Const     64.99800     48.66581     26.67403  -25.127
         15        Elastic Const     15.38046     12.42732      1.74420  -19.201
         16        Elastic Const     11.74897     17.13005      5.79121   45.800
         17        Elastic Const     11.75000     18.12892      8.13813   54.289
         18        Elastic Const     15.30000     12.42732      1.65045  -18.776
         19        Elastic Const     11.70000     17.13005      5.89709   46.411
         20        Elastic Const     11.70000     18.12892      8.26621   54.948
         21        Elastic Const     24.80883     19.21831      6.25077  -22.534
         22        Elastic Const     11.80193     20.73347     15.95449   75.679
         23        Elastic Const     11.80193     16.10302      3.69987   36.444
         24        Derivative         0.00000     -2.37478      5.63960
         25        Derivative         0.00000      1.73293      3.00306
         26        Derivative         0.00000      1.85102      3.42628
         27        Derivative         0.00000     -0.10828      0.01172
         28        Derivative         0.00000     -0.52516      0.27579
         29        Derivative         0.00000     -0.88453      0.78240

  Comparison of initial and final observables :

   Observable no.  Type            Observable   Initial       Final
          1        Energy           -16.42000    -13.03681     -9.31165
          2        Energy           -17.33000    -14.46028    -13.67464
          3        Energy           -17.91000    -15.10012    -15.59544
          4        Energy           -18.23000    -15.30405    -16.31130
          5        Energy           -18.32000    -15.27439    -16.45216
          6        Energy           -18.24000    -15.12654    -16.33341
          7        Energy           -18.01000    -14.92614    -16.11171
          8        Energy           -17.66000    -14.70816    -15.85960
          9        Energy           -17.23000    -14.49014    -15.60736
         10        Energy           -16.72000    -14.27988    -15.36573
         11        Energy           -16.16000    -14.08193    -15.14001
         12        Energy           -18.31000    -15.27439    -16.45216
         13        Elastic Const     64.99800     34.14870     40.24411
         14        Elastic Const     64.99800     28.73887     48.66581
         15        Elastic Const     15.38046     15.05455     12.42732
         16        Elastic Const     11.74897     20.50525     17.13005
         17        Elastic Const     11.75000     11.99722     18.12892
         18        Elastic Const     15.30000     15.05455     12.42732
         19        Elastic Const     11.70000     20.50525     17.13005
         20        Elastic Const     11.70000     11.99722     18.12892
         21        Elastic Const     24.80883     12.15873     19.21831
         22        Elastic Const     11.80193     19.49021     20.73347
         23        Elastic Const     11.80193     14.00569     16.10302
         24        Derivative         0.00000      1.44021     -2.37478
         25        Derivative         0.00000      1.84155      1.73293
         26        Derivative         0.00000      1.85308      1.85102
         27        Derivative         0.00000     -0.01058     -0.10828
         28        Derivative         0.00000     -0.05131     -0.52516
         29        Derivative         0.00000     -0.08642     -0.88453

  Maximum range for interatomic potentials =         8.000000 Angstroms

  Taper potentials to zero over   8.0000 Angstroms using Voter m =  20.0000

  General interatomic potentials :

Atom  Types   Potential         A         B         C         D     Cutoffs(Ang)
  1     2                                                            Min    Max
Sb   c Te2  c Morse         0.240      5.66     2.94     0.00       0.000 12.000
Sb   c Te1  c Morse         0.116      1.31     3.25     0.00       0.000 12.000
Sb   c Sb   c Morse         0.997E-01 0.747     4.43     0.00       0.000 12.000
Te1  c Te1  c Morse         0.658E-01  1.11     4.50     0.00       0.000 12.000
Te1  c Te2  c Morse         0.787E-01 0.724     4.24     0.00       0.000 12.000
Te2  c Te2  c Morse         0.426E-01  3.11     4.24     0.00       0.000 12.000
Te2  c Te2  c Morse         0.494E-01  1.28     4.56     0.00       0.000 12.000

  Energy shifts for configurations :

      Configuration           Energy (eV)        Scale Factor
             1               -12.3904                 1.000
             2               -12.3904                 1.000
             3               -12.3904                 1.000
             4               -12.3904                 1.000
             5               -12.3904                 1.000
             6               -12.3904                 1.000
             7               -12.3904                 1.000
             8               -12.3904                 1.000
             9               -12.3904                 1.000
            10               -12.3904                 1.000
            11               -12.3904                 1.000
            12               -12.3904                 1.000
            13               -12.3904                 1.000

  Total time to end of fitting =     198.1964 seconds

*  Output for configuration   1                                                *

!! WARNING : No variables to optimise - single point performed

  Components of energy :

  Interatomic potentials     =           3.24042081 eV
  Monopole - monopole (real) =          -0.03114608 eV
  Monopole - monopole (recip)=          -0.13048030 eV
  Monopole - monopole (total)=          -0.16162639 eV
  Energy shift               =         -12.39044928 eV
  Total lattice energy       =          -9.31165486 eV
  Total lattice energy       =            -898.4324 kJ/(mole unit cells)

  Born effective charge tensors :

  Atom             x           y             z
   1 Sb    x       0.1631      0.0000      0.0000
           y       0.0000      0.1631      0.0000
           z       0.0000      0.0000      0.1631
   2 Sb    x       0.1631      0.0000      0.0000
           y       0.0000      0.1631      0.0000
           z       0.0000      0.0000      0.1631
   3 Te1   x       0.0868      0.0000      0.0000
           y       0.0000      0.0868      0.0000
           z       0.0000      0.0000      0.0868
   4 Te2   x      -0.2065      0.0000      0.0000
           y       0.0000     -0.2065      0.0000
           z       0.0000      0.0000     -0.2065
   5 Te2   x      -0.2065      0.0000      0.0000
           y       0.0000     -0.2065      0.0000
           z       0.0000      0.0000     -0.2065

  Elastic Constant Matrix: (Units=GPa)

  Indices      1         2         3         4         5         6
       1    225.0244  140.8398  161.9933  -19.3963   -4.4562   -7.5056
       2    140.8398   77.3378  117.9084   25.6106   34.5963   39.3075
       3    161.9933  117.9084   50.6714   -1.1593   -5.6227    9.4930
       4    -19.3963   25.6106   -1.1593   -9.7044   17.0729   39.0966
       5     -4.4562   34.5963   -5.6227   17.0729   69.5811  -18.4685
       6     -7.5056   39.3075    9.4930   39.0966  -18.4685   49.4395

  Elastic Compliance Matrix: (Units=1/GPa)

[...]

 Mechanical properties :

  Convention :                    Reuss         Voigt         Hill
  Bulk  Modulus (GPa)     =     417.02571     132.72407     274.87489
  Shear Modulus (GPa)     =     -57.73327      17.34937     -20.19195
  Velocity S-wave (km/s)  =      -8.57632       4.70143      -5.07198
  Velocity P-wave (km/s)  =      20.81413      14.09129      17.77347
  Compressibility (1/GPa) =    0.00239793
  Stress axis :                     x             y             z
  Youngs Moduli (GPa)     =    -112.42791     -87.11103     -70.61625
  Poissons Ratio (x)      =                     0.70814       0.73678
  Poissons Ratio (y)      =       0.91394                    -0.00678
  Poissons Ratio (z)      =       1.17302      -0.00837

  Piezoelectric Strain Matrix: (Units=C/m**2)

  Indices      1         2         3         4         5         6
       x     0.00000   0.00000   0.00000  -0.00000  -0.00000  -0.00000
       y    -0.00000   0.00000   0.00000   0.00000  -0.00000   0.00000
       z    -0.00000   0.00000  -0.00000   0.00000   0.00000  -0.00000

  Piezoelectric Stress Matrix: (Units=10**-11 C/N)

[...]

  Static dielectric constant tensor :

              x         y         z
       x     1.00480  -0.00037  -0.00022
       y    -0.00037   1.00651  -0.00005
       z    -0.00022  -0.00005   1.00656

  Static refractive indices :

    1 =    1.00235      2 =    1.00329      3 =    1.00329

  Time to end of properties =     198.2004 seconds

[...]

!! WARNING : No variables to optimise - single point performed

[...]

  Time to end of properties =     198.2284 seconds

*  Output for configuration  13                                                *

[...]

  Number of variables =      6

  Maximum number of calculations  =          1000
  Maximum Hessian update interval =            10
  Maximum step size               =   1.000000000
  Maximum parameter tolerance     =   0.000010000
  Maximum function  tolerance     =   0.000010000
  Maximum gradient  tolerance     =   0.001000000
  Maximum gradient  component     =   0.010000000

  Symmetry not applied to optimisation

  Cell parameters to be optimised using strains

  Newton-Raphson optimiser to be used

  BFGS hessian update to be used

  Dumpfile to be written after every cycle

  Start of bulk optimisation :

  ** Hessian calculated **

  **** Optimisation achieved ****

  Final energy =     -16.58288065 eV
  Final Gnorm  =       0.00013527

  Components of energy :

  Interatomic potentials     =          -4.10353177 eV
  Monopole - monopole (real) =          -0.02408907 eV
  Monopole - monopole (recip)=          -0.06481053 eV
  Monopole - monopole (total)=          -0.08889960 eV
  Energy shift               =         -12.39044928 eV
  Total lattice energy       =         -16.58288065 eV
  Total lattice energy       =           -1599.9945 kJ/(mole unit cells)

  Final fractional coordinates of atoms :

   No.  Atomic        x           y          z          Radius
        Label       (Frac)      (Frac)     (Frac)       (Angs)
     1  Sb    c     0.396797    0.396797    0.396797    0.000000
     2  Sb    c     0.603203    0.603203    0.603203    0.000000
     3  Te1   c     0.000000    0.000000    0.000000    0.000000
     4  Te2   c     0.784571    0.784571    0.784571    0.000000
     5  Te2   c     0.215429    0.215429    0.215429    0.000000

  Final Cartesian lattice vectors (Angstroms) :

       11.162076    0.158527    0.094120
       10.314473    4.269510    0.094120
       10.314473    2.126639    3.703374

  Final cell parameters and derivatives :

       a           11.163598 Angstrom     dE/de1(xx)    -0.000153 eV/strain
       b           11.163598 Angstrom     dE/de2(yy)     0.000540 eV/strain
       c           11.163598 Angstrom     dE/de3(zz)     0.000560 eV/strain
       alpha       21.671865 Degrees      dE/de4(yz)    -0.000018 eV/strain
       beta        21.671865 Degrees      dE/de5(xz)    -0.000089 eV/strain
       gamma       21.671865 Degrees      dE/de6(xy)    -0.000149 eV/strain

  Primitive cell volume =           166.274139 Angs**3

  Density of cell =      6.254804 g/cm**3

  Non-primitive cell volume =           166.274139 Angs**3

  Final internal derivatives :

   No.  Atomic          x             y             z           Radius
        Label          (eV)          (eV)          (eV)        (eV/Angs)
      1 Sb    c       0.000000      0.000000      0.000000      0.000000
      2 Sb    c       0.000000      0.000000      0.000000      0.000000
      3 Te1   c       0.000000      0.000000      0.000000      0.000000
      4 Te2   c       0.000000      0.000000      0.000000      0.000000
      5 Te2   c       0.000000      0.000000      0.000000      0.000000
  Maximum abs         0.000000      0.000000      0.000000      0.000000

  Born effective charge tensors :

  Atom             x           y             z
   1 Sb    x       0.1631      0.0000      0.0000
           y       0.0000      0.1631      0.0000
           z       0.0000      0.0000      0.1631
   2 Sb    x       0.1631      0.0000      0.0000
           y       0.0000      0.1631      0.0000
           z       0.0000      0.0000      0.1631
   3 Te1   x       0.0868      0.0000      0.0000
           y       0.0000      0.0868      0.0000
           z       0.0000      0.0000      0.0868
   4 Te2   x      -0.2065      0.0000      0.0000
           y       0.0000     -0.2065      0.0000
           z       0.0000      0.0000     -0.2065
   5 Te2   x      -0.2065      0.0000      0.0000
           y       0.0000     -0.2065      0.0000
           z       0.0000      0.0000     -0.2065

  Elastic Constant Matrix: (Units=GPa)

[...]

  Elastic Compliance Matrix: (Units=1/GPa)

  Indices      1         2         3         4         5         6
       1    0.026095 -0.003007 -0.005106  0.003848 -0.002290 -0.003858
       2   -0.003007  0.016188 -0.007223 -0.006446 -0.010309  0.008124
       3   -0.005106 -0.007223  0.017941  0.003232  0.015674  0.000912
       4    0.003848 -0.006446  0.003232  0.036106  0.005589 -0.018382
       5   -0.002290 -0.010309  0.015674  0.005589  0.062061  0.008157
       6   -0.003858  0.008124  0.000912 -0.018382  0.008157  0.070958

 Mechanical properties :

  Convention :                    Reuss         Voigt         Hill
  Bulk  Modulus (GPa)     =      33.83924      40.60947      37.22435
  Shear Modulus (GPa)     =      18.52739      25.19783      21.86261
  Velocity S-wave (km/s)  =       5.44252       6.34709       5.91213
  Velocity P-wave (km/s)  =       9.67450      10.89217      10.30134
  Compressibility (1/GPa) =    0.02955149
  Stress axis :                     x             y             z
  Youngs Moduli (GPa)     =      38.32218      61.77364      55.73857
  Poissons Ratio (x)      =                     0.18576       0.28458
  Poissons Ratio (y)      =       0.11524                     0.40262
  Poissons Ratio (z)      =       0.19566       0.44621

  Piezoelectric Strain Matrix: (Units=C/m**2)

[...]

  Piezoelectric Stress Matrix: (Units=10**-11 C/N)

  Indices      1         2         3         4         5         6
       x     0.00000  -0.00000  -0.00000  -0.00000  -0.00000  -0.00000
       y    -0.00000   0.00000  -0.00000   0.00000  -0.00000   0.00000
       z    -0.00000  -0.00000   0.00000   0.00000   0.00000  -0.00000

  Static dielectric constant tensor :

              x         y         z
       x     1.02630  -0.00122  -0.00073
       y    -0.00122   1.03198  -0.00015
       z    -0.00073  -0.00015   1.03214

  Static refractive indices :

    1 =    1.01290      2 =    1.01599      3 =    1.01599

  Time to end of optimisation =     198.2684 seconds

  Timing analysis for GULP :

  Task / Subroutine                                          Time (Seconds)
  Calculation of reciprocal space energy and derivatives         11.5527
  Calculation of real space energy and derivatives              179.7913
  Sum of squares for fitting                                      4.8643
  Global summation overhead                                       0.1400

  Dump file written as sb2te3.res

  **** GULP has completed with  14 warnings - beware! ****

  Job Finished at 12:40.31 21st June       2010