  Job Started  at 13:24.38 22nd June       2010

  Number of CPUs =     1

  Total number of configurations input = 133

*  Input for Configuration =   1                                               *

  Formula = Sb2Te3

  Number of irreducible atoms/shells =       5

  Total number atoms/shells =       5

  Dimensionality = 3               :  Bulk

  Cartesian lattice vectors (Angstroms) :

       -2.504286    0.000000   10.443767
        1.252143   -2.168775   10.443767
        1.252143    2.168775   10.443767

  Cell parameters (Angstroms/Degrees):

  a =      10.7398    alpha =  23.3006
  b =      10.7398    beta  =  23.3006
  c =      10.7398    gamma =  23.3006

  Initial cell volume =         170.167643 Angs**3

  Temperature of configuration =  0.000     K

  Pressure of configuration =         0.000 GPa

  Fractional coordinates of asymmetric unit :

   No.  Atomic       x           y          z         Charge      Occupancy
        Label      (Frac)      (Frac)     (Frac)        (e)         (Frac)
      1 Sb    c    0.369021    0.369021    0.369021      0.1150    1.000000
      2 Sb    c    0.603203    0.603203    0.603203      0.1150    1.000000
      3 Te1   c    0.000000    0.000000    0.000000      0.1800    1.000000
      4 Te2   c    0.784571    0.784571    0.784571     -0.2050    1.000000
      5 Te2   c    0.215429    0.215429    0.215429     -0.2050    1.000000

[...]

   No.  Atomic       x           y          z         Charge      Occupancy
        Label      (Frac)      (Frac)     (Frac)        (e)         (Frac)
      1 Sb    c    0.396797    0.396797    0.396797      0.1150    1.000000
      2 Sb    c    0.603203    0.603203    0.603203      0.1150    1.000000
      3 Te1   c    0.000000    0.000000    0.000000      0.1800    1.000000
      4 Te2   c    0.784571    0.784571    0.784571     -0.2050    1.000000
      5 Te2   c    0.215429    0.215429    0.215429     -0.2050    1.000000

*  Input for Configuration = 133                                               *

  Formula = Sb2Te3

  Number of irreducible atoms/shells =       5

  Total number atoms/shells =       5

  Dimensionality = 3               :  Bulk

  Cartesian lattice vectors (Angstroms) :

[...]

  Cell parameters (Angstroms/Degrees):

  a =      10.7398    alpha =  23.3000
  b =      10.7398    beta  =  23.3000
  c =      10.7398    gamma =  23.3000

  Initial cell volume =         170.158355 Angs**3

  Temperature of configuration =  0.000     K

  Pressure of configuration =         0.000 GPa

  Fractional coordinates of asymmetric unit :

   No.  Atomic       x           y          z         Charge      Occupancy
        Label      (Frac)      (Frac)     (Frac)        (e)         (Frac)
      1 Sb    c    0.396797    0.396797    0.396797      0.1150    1.000000
      2 Sb    c    0.603203 *  0.603203 *  0.603203 *    0.1150    1.000000
      3 Te1   c    0.000000 *  0.000000 *  0.000000 *    0.1800    1.000000
      4 Te2   c    0.784571 *  0.784571 *  0.784571 *   -0.2050    1.000000
      5 Te2   c    0.215429 *  0.215429 *  0.215429 *   -0.2050    1.000000

*  General input information                                                   *

  Species output for all configurations :

  Species    Type    Atomic    Atomic    Charge       Radii (Angs)     Library
                     Number     Mass       (e)     Cova   Ionic  VDW   Symbol
    Sb       Core       51     121.75     0.1150   1.460  0.000  2.170
    Te1      Core       52     127.60     0.1800   1.470  0.000  2.200
    Te2      Core       52     127.60    -0.2050   1.470  0.000  2.200

  Lattice summation method               =    Ewald
  Accuracy factor for lattice sums       =    8.000

  Time limit = Infinity

  Maximum range for interatomic potentials =         8.000000 Angstroms

  Taper potentials to zero over   8.0000 Angstroms using Voter m =  20.0000

  General interatomic potentials :

Atom  Types   Potential         A         B         C         D     Cutoffs(Ang)
  1     2                                                            Min    Max
Sb   c Te2  c Morse         0.159      3.46     3.05     0.00       0.000 12.000
Sb   c Te1  c Morse         0.208      1.78     3.19     0.00       0.000 12.000
Te1  c Te1  c Morse         0.490E-01  1.05     4.40     0.00       0.000 12.000
Te1  c Te2  c Morse         0.318E-01 0.458     4.62     0.00       0.000 12.000
Te2  c Te2  c Morse         0.990E-01  3.00     3.93     0.00       0.000 12.000

  Energy shifts for configurations :

      Configuration           Energy (eV)        Scale Factor
             1               -14.6000                 1.000
             2               -14.6000                 1.000
             3               -14.6000                 1.000
             4               -14.6000                 1.000
             5               -14.6000                 1.000
             6               -14.6000                 1.000
             7               -14.6000                 1.000
             8               -14.6000                 1.000
             9               -14.6000                 1.000
            10               -14.6000                 1.000
            11               -14.6000                 1.000
            12               -14.6000                 1.000
            13               -14.6000                 1.000
            14               -14.6000                 1.000
            15               -14.6000                 1.000
            16               -14.6000                 1.000
            17               -14.6000                 1.000
            18               -14.6000                 1.000
            19               -14.6000                 1.000
            20               -14.6000                 1.000
            21               -14.6000                 1.000
            22               -14.6000                 1.000
            23               -14.6000                 1.000
            24               -14.6000                 1.000
            25               -14.6000                 1.000
            26               -14.6000                 1.000
            27               -14.6000                 1.000
            28               -14.6000                 1.000
            29               -14.6000                 1.000
            30               -14.6000                 1.000
            31               -14.6000                 1.000
            32               -14.6000                 1.000
            33               -14.6000                 1.000
            34               -14.6000                 1.000
            35               -14.6000                 1.000
            36               -14.6000                 1.000
            37               -14.6000                 1.000
            38               -14.6000                 1.000
            39               -14.6000                 1.000
            40               -14.6000                 1.000
            41               -14.6000                 1.000
            42               -14.6000                 1.000
            43               -14.6000                 1.000
            44               -14.6000                 1.000
            45               -14.6000                 1.000
            46               -14.6000                 1.000
            47               -14.6000                 1.000
            48               -14.6000                 1.000
            49               -14.6000                 1.000
            50               -14.6000                 1.000
            51               -14.6000                 1.000
            52               -14.6000                 1.000
            53               -14.6000                 1.000
            54               -14.6000                 1.000
            55               -14.6000                 1.000
            56               -14.6000                 1.000
            57               -14.6000                 1.000
            58               -14.6000                 1.000
            59               -14.6000                 1.000
            60               -14.6000                 1.000
[...]
           119               -14.6000                 1.000
           120               -14.6000                 1.000
           121               -14.6000                 1.000
           122               -14.6000                 1.000
           123               -14.6000                 1.000
           124               -14.6000                 1.000
           125               -14.6000                 1.000
           126               -14.6000                 1.000
           127               -14.6000                 1.000
           128               -14.6000                 1.000
           129               -14.6000                 1.000
           130               -14.6000                 1.000
           131               -14.6000                 1.000
           132               -14.6000                 1.000
           133               -14.6000                 1.000

  Number of variables   =   16
  Number of observables =  150

   Observable no.  Type           Observable    Weight       Reference  Confign
          1        Energy          -16.066600        0.0000                1
          2        Energy          -16.584500        0.0000                2
          3        Energy          -17.060200        0.0000                3
          4        Energy          -17.480900        0.0000                4
          5        Energy          -17.831400        0.0000                5
          6        Energy          -18.095000        0.0000                6
          7        Energy          -18.258200        0.0000                7
          8        Energy          -18.313000        0.0000                8
          9        Energy          -18.257900        0.0000                9
         10        Energy          -18.096800        0.0000               10
         11        Energy          -17.838700        0.0000               11
         12        Energy          -17.496800        0.0000               12
         13        Energy          -17.088900        0.0000               13
         14        Energy          -16.635400        0.0000               14
         15        Energy          -16.162800        0.0000               15
         16        Energy          -14.700000        0.0000               16
         17        Energy          -15.230000        0.0000               17
         18        Energy          -15.880000        0.0000               18
         19        Energy          -16.600000        0.0000               19
         20        Energy          -17.270000        0.0000               20
         21        Energy          -17.830000        0.0000               21
         22        Energy          -18.190000        0.0000               22
         23        Energy          -18.310000        0.0000               23
         24        Energy          -18.190000        0.0000               24
         25        Energy          -17.820000        0.0000               25
[...]
        136        Derivative         0.00000     -0.00256     -0.00695
        137        Derivative         0.00000     -0.01241     -0.03370
        138        Derivative         0.00000     -0.02090     -0.05675
        139        Derivative         0.00000     -0.35344     -0.44036
        140        Derivative         0.00000     -0.35344     -0.44036
        141        Derivative         0.00000     -0.35344     -0.44036
        142        Derivative         0.00000      0.00001      0.00001
        143        Derivative         0.00000      0.00001      0.00001
        144        Derivative         0.00000      0.00001      0.00001
        145        Derivative         0.00000     -0.28058      0.06337
        146        Derivative         0.00000     -0.28058      0.06337
        147        Derivative         0.00000     -0.28058      0.06337
        148        Derivative         0.00000      0.28058     -0.06337
        149        Derivative         0.00000      0.28058     -0.06337
        150        Derivative         0.00000      0.28058     -0.06337

  Maximum range for interatomic potentials =         8.000000 Angstroms

  Taper potentials to zero over   8.0000 Angstroms using Voter m =  20.0000

  General interatomic potentials :

Atom  Types   Potential         A         B         C         D     Cutoffs(Ang)
  1     2                                                            Min    Max
Sb   c Te2  c Morse         0.145      3.47     3.05     0.00       0.000 12.000
Sb   c Te1  c Morse         0.430      1.62     3.19     0.00       0.000 12.000
Te1  c Te1  c Morse         0.166E-01 0.962     4.46     0.00       0.000 12.000
Te1  c Te2  c Morse         0.235E-01 0.541     4.87     0.00       0.000 12.000
Te2  c Te2  c Morse         0.119      2.47     3.93     0.00       0.000 12.000

  Energy shifts for configurations :

      Configuration           Energy (eV)        Scale Factor
             1               -13.8079                 1.000
             2               -13.8079                 1.000
             3               -13.8079                 1.000
             4               -13.8079                 1.000
             5               -13.8079                 1.000
             6               -13.8079                 1.000
             7               -13.8079                 1.000
             8               -13.8079                 1.000
             9               -13.8079                 1.000
            10               -13.8079                 1.000
            11               -13.8079                 1.000
            12               -13.8079                 1.000
            13               -13.8079                 1.000
            14               -13.8079                 1.000
            15               -13.8079                 1.000
            16               -13.8079                 1.000
            17               -13.8079                 1.000
            18               -13.8079                 1.000
            19               -13.8079                 1.000
            20               -13.8079                 1.000
            21               -13.8079                 1.000
            22               -13.8079                 1.000
            23               -13.8079                 1.000
            24               -13.8079                 1.000
            25               -13.8079                 1.000
            26               -13.8079                 1.000
            27               -13.8079                 1.000
            28               -13.8079                 1.000
            29               -13.8079                 1.000
            30               -13.8079                 1.000
            31               -13.8079                 1.000
            32               -13.8079                 1.000
            33               -13.8079                 1.000
            34               -13.8079                 1.000
            35               -13.8079                 1.000
            36               -13.8079                 1.000
            37               -13.8079                 1.000
            38               -13.8079                 1.000
            39               -13.8079                 1.000
            40               -13.8079                 1.000
            41               -13.8079                 1.000
            42               -13.8079                 1.000
            43               -13.8079                 1.000
            44               -13.8079                 1.000
            45               -13.8079                 1.000
            46               -13.8079                 1.000
            47               -13.8079                 1.000
            48               -13.8079                 1.000
            49               -13.8079                 1.000
            50               -13.8079                 1.000
            51               -13.8079                 1.000
            52               -13.8079                 1.000
            53               -13.8079                 1.000
            54               -13.8079                 1.000
            55               -13.8079                 1.000
            56               -13.8079                 1.000
            57               -13.8079                 1.000
            58               -13.8079                 1.000
            59               -13.8079                 1.000
            60               -13.8079                 1.000
[...]
           119               -13.8079                 1.000
           120               -13.8079                 1.000
           121               -13.8079                 1.000
           122               -13.8079                 1.000
           123               -13.8079                 1.000
           124               -13.8079                 1.000
           125               -13.8079                 1.000
           126               -13.8079                 1.000
           127               -13.8079                 1.000
           128               -13.8079                 1.000
           129               -13.8079                 1.000
           130               -13.8079                 1.000
           131               -13.8079                 1.000
           132               -13.8079                 1.000
           133               -13.8079                 1.000

  Total time to end of fitting =     610.3701 seconds

*  Output for configuration   1                                                *

!! WARNING : No variables to optimise - single point performed

  Components of energy :

  Interatomic potentials     =          -2.79486205 eV
  Monopole - monopole (real) =           0.08158182 eV
  Monopole - monopole (recip)=           0.06707314 eV
  Monopole - monopole (total)=           0.14865496 eV
  Energy shift               =         -13.80792466 eV
  Total lattice energy       =         -16.45413174 eV
  Total lattice energy       =           -1587.5722 kJ/(mole unit cells)

  Born effective charge tensors :

  Atom             x           y             z
   1 Sb    x       0.1114      0.0000      0.0000
           y       0.0000      0.1114      0.0000
           z       0.0000      0.0000      0.1114
   2 Sb    x       0.1114      0.0000      0.0000
           y       0.0000      0.1114      0.0000
           z       0.0000      0.0000      0.1114
   3 Te1   x       0.2215      0.0000      0.0000
           y       0.0000      0.2215      0.0000
           z       0.0000      0.0000      0.2215
   4 Te2   x      -0.2222      0.0000      0.0000
           y       0.0000     -0.2222      0.0000
           z       0.0000      0.0000     -0.2222
   5 Te2   x      -0.2222      0.0000      0.0000
           y       0.0000     -0.2222      0.0000
           z       0.0000      0.0000     -0.2222

  Elastic Constant Matrix: (Units=GPa)

  Indices      1         2         3         4         5         6
       1   -328.3247 -254.6384 -165.9496    0.0000  -24.3494   -0.0000
       2   -254.6384 -328.3247 -165.9496    0.0000   24.3494   -0.0000
       3   -165.9496 -165.9496 -137.8756    0.0000   -0.0000   -0.0000
       4      0.0000    0.0000    0.0000  -37.4178   -0.0000   24.3494
       5    -24.3494   24.3494   -0.0000   -0.0000  -37.4178    0.0000
       6     -0.0000   -0.0000   -0.0000   24.3494    0.0000  -36.8432

  Elastic Compliance Matrix: (Units=1/GPa)

[...]

 Mechanical properties :

  Convention :                    Reuss         Voigt         Hill
  Bulk  Modulus (GPa)     =    -129.78854    -218.62223    -174.20539
  Shear Modulus (GPa)     =     -20.75687     -36.20159     -28.47923
  Velocity S-wave (km/s)  =      -5.82774      -7.69632      -6.82627
  Velocity P-wave (km/s)  =      16.05131      20.89711      18.63241
  Compressibility (1/GPa) =   -0.00770484
  Stress axis :                     x             y             z
  Youngs Moduli (GPa)     =     -68.34802     -68.34802     -43.39532
  Poissons Ratio (x)      =                     0.62750       0.28467
  Poissons Ratio (y)      =       0.62750                     0.28467
  Poissons Ratio (z)      =       0.44835       0.44835

  Piezoelectric Strain Matrix: (Units=C/m**2)

  Indices      1         2         3         4         5         6
       x    -3.45320   3.45320  -0.00000  -0.00000  -5.00754   0.00000
       y     0.00000   0.00000   0.00000  -5.00754  -0.00000   3.45320
       z   -12.32009 -12.32009 -10.13253   0.00000  -0.00000  -0.00000

  Piezoelectric Stress Matrix: (Units=10**-11 C/N)

[...]

  Static dielectric constant tensor :

              x         y         z
       x     1.29654   0.00000   0.00000
       y     0.00000   1.29654  -0.00000
       z     0.00000  -0.00000   1.41940

  Static refractive indices :

    1 =    1.13866      2 =    1.13866      3 =    1.19138

  Time to end of properties =     610.3741 seconds

[...]

!! WARNING : No variables to optimise - single point performed

[...]

  Time to end of properties =     610.7182 seconds

*  Output for configuration 133                                                *

[...]

  Number of variables =     18

  Maximum number of calculations  =          1000
  Maximum Hessian update interval =            10
  Maximum step size               =   1.000000000
  Maximum parameter tolerance     =   0.000010000
  Maximum function  tolerance     =   0.000010000
  Maximum gradient  tolerance     =   0.001000000
  Maximum gradient  component     =   0.010000000

  Symmetry not applied to optimisation

  Cell parameters to be optimised using strains

  Newton-Raphson optimiser to be used

  BFGS hessian update to be used

  Dumpfile to be written after every cycle

  Start of bulk optimisation :

  ** Hessian calculated **
  ** Hessian calculated **

  **** Optimisation achieved ****

  Final energy =     -18.46410488 eV
  Final Gnorm  =       0.00053615

  Components of energy :

  Interatomic potentials     =          -4.91272968 eV
  Monopole - monopole (real) =           0.05423373 eV
  Monopole - monopole (recip)=           0.20231573 eV
  Monopole - monopole (total)=           0.25654945 eV
  Energy shift               =         -13.80792466 eV
  Total lattice energy       =         -18.46410488 eV
  Total lattice energy       =           -1781.5039 kJ/(mole unit cells)

  Final fractional coordinates of atoms :

   No.  Atomic        x           y          z          Radius
        Label       (Frac)      (Frac)     (Frac)       (Angs)
     1  Sb    c     0.396797    0.396797    0.396797    0.000000
     2  Sb    c     0.603761    0.603755    0.603757    0.000000
     3  Te1   c     0.000278    0.000276    0.000279    0.000000
     4  Te2   c     0.786880    0.786882    0.786895    0.000000
     5  Te2   c     0.213674    0.213668    0.213664    0.000000

  Final Cartesian lattice vectors (Angstroms) :

       11.475835    0.308718    0.183335
       10.662051    4.255674    0.183332
       10.662067    2.198303    3.648608

  Final cell parameters and derivatives :

       a           11.481451 Angstrom     dE/de1(xx)     0.001257 eV/strain
       b           11.481451 Angstrom     dE/de2(yy)     0.001344 eV/strain
       c           11.481487 Angstrom     dE/de3(zz)     0.000779 eV/strain
       alpha       20.215547 Degrees      dE/de4(yz)     0.000137 eV/strain
       beta        20.215519 Degrees      dE/de5(xz)     0.000649 eV/strain
       gamma       20.215445 Degrees      dE/de6(xy)    -0.000024 eV/strain

  Primitive cell volume =           158.135834 Angs**3

  Density of cell =      6.576701 g/cm**3

  Non-primitive cell volume =           158.135834 Angs**3

  Final internal derivatives :

   No.  Atomic          x             y             z           Radius
        Label          (eV)          (eV)          (eV)        (eV/Angs)
      1 Sb    c       0.000000      0.000000      0.000000      0.000000
      2 Sb    c      -0.003034     -0.003087     -0.002821      0.000000
      3 Te1   c       0.001932      0.001969      0.002039      0.000000
      4 Te2   c      -0.002983     -0.002865     -0.002185      0.000000
      5 Te2   c       0.003239      0.003186      0.002779      0.000000
  Maximum abs         0.003239      0.003186      0.002821      0.000000

  Born effective charge tensors :

  Atom             x           y             z
   1 Sb    x       0.1114      0.0000      0.0000
           y       0.0000      0.1114      0.0000
           z       0.0000      0.0000      0.1114
   2 Sb    x       0.1114      0.0000      0.0000
           y       0.0000      0.1114      0.0000
           z       0.0000      0.0000      0.1114
   3 Te1   x       0.2215      0.0000      0.0000
           y       0.0000      0.2215      0.0000
           z       0.0000      0.0000      0.2215
   4 Te2   x      -0.2222      0.0000      0.0000
           y       0.0000     -0.2222      0.0000
           z       0.0000      0.0000     -0.2222
   5 Te2   x      -0.2222      0.0000      0.0000
           y       0.0000     -0.2222      0.0000
           z       0.0000      0.0000     -0.2222

  Elastic Constant Matrix: (Units=GPa)

[...]

  Elastic Compliance Matrix: (Units=1/GPa)

  Indices      1         2         3         4         5         6
       1    0.029545 -0.008351 -0.025727  0.031868 -0.009236 -0.015558
       2   -0.008351  0.079921 -0.058255 -0.045183 -0.055376 -0.006143
       3   -0.025727 -0.058255  0.097818  0.012374  0.060052  0.014015
       4    0.031868 -0.045183  0.012374  0.220227 -0.029736 -0.145149
       5   -0.009236 -0.055376  0.060052 -0.029736  0.082156  0.056642
       6   -0.015558 -0.006143  0.014015 -0.145149  0.056642  0.143978

 Mechanical properties :

  Convention :                    Reuss         Voigt         Hill
  Bulk  Modulus (GPa)     =      44.21495      57.83580      51.02538
  Shear Modulus (GPa)     =       5.91121      29.71625      17.81373
  Velocity S-wave (km/s)  =       2.99802       6.72191       5.20443
  Velocity P-wave (km/s)  =       8.90021      12.17317      10.66301
  Compressibility (1/GPa) =    0.02261679
  Stress axis :                     x             y             z
  Youngs Moduli (GPa)     =      33.84642      12.51236      10.22312
  Poissons Ratio (x)      =                     0.10449       0.26301
  Poissons Ratio (y)      =       0.28266                     0.59555
  Poissons Ratio (z)      =       0.87078       0.72891

  Piezoelectric Strain Matrix: (Units=C/m**2)

[...]

  Piezoelectric Stress Matrix: (Units=10**-11 C/N)

  Indices      1         2         3         4         5         6
       x    -0.00002  -0.00000   0.00008  -0.00007   0.00001   0.00004
       y     0.00003  -0.00003   0.00001   0.00028  -0.00007  -0.00017
       z    -0.00007  -0.00002   0.00008   0.00003   0.00010  -0.00003

  Static dielectric constant tensor :

              x         y         z
       x     1.02687  -0.00244  -0.00144
       y    -0.00244   1.03820  -0.00030
       z    -0.00144  -0.00030   1.03852

  Static refractive indices :

    1 =    1.01301      2 =    1.01916      3 =    1.01917

  Time to end of optimisation =     611.0862 seconds

  Timing analysis for GULP :

  Task / Subroutine                                          Time (Seconds)
  Calculation of reciprocal space energy and derivatives         35.8022
  Calculation of real space energy and derivatives              557.6269
  Sum of squares for fitting                                     13.0368
  Global summation overhead                                       0.4280

  Dump file written as sb2te3.res

  **** GULP has completed with 132 warnings - beware! ****

  Job Finished at 13:34.49 22nd June       2010