  Job Started  at 13:30.59 21st June       2010

  Number of CPUs =     1

  Total number of configurations input =  58

*  Input for Configuration =   1                                               *

  Formula = Sb2Te3

  Number of irreducible atoms/shells =       5

  Total number atoms/shells =       5

  Dimensionality = 3               :  Bulk

  Cartesian lattice vectors (Angstroms) :

       10.739800    0.000000    0.000000
        9.863930    4.248080    0.000000
        9.863930    2.033746    3.729619

  Cell parameters (Angstroms/Degrees):

  a =      10.7398    alpha =  23.3000
  b =      10.7398    beta  =  23.3000
  c =      10.7398    gamma =  23.3000

  Initial cell volume =         170.158355 Angs**3

  Temperature of configuration =  0.000     K

  Pressure of configuration =         0.000 GPa

  Fractional coordinates of asymmetric unit :

   No.  Atomic       x           y          z         Charge      Occupancy
        Label      (Frac)      (Frac)     (Frac)        (e)         (Frac)
      1 Sb    c    0.401797    0.396797    0.396797      0.0000    1.000000
      2 Sb    c    0.603203    0.603203    0.603203      0.0000    1.000000
      3 Te1   c    0.000000    0.000000    0.000000     -0.0000    1.000000
      4 Te2   c    0.784571    0.784571    0.784571     -0.0000    1.000000
      5 Te2   c    0.215429    0.215429    0.215429     -0.0000    1.000000

[...]

*  Input for Configuration =  58                                               *

  Formula = Sb2Te3

  Number of irreducible atoms/shells =       5

  Total number atoms/shells =       5

  Dimensionality = 3               :  Bulk

  Cartesian lattice vectors (Angstroms) :

[...]

  Cell parameters (Angstroms/Degrees):

  a =      10.7398    alpha =  23.3000
  b =      10.7398    beta  =  23.3000
  c =      10.7398    gamma =  23.3000

  Initial cell volume =         170.158355 Angs**3

  Temperature of configuration =  0.000     K

  Pressure of configuration =         0.000 GPa

  Fractional coordinates of asymmetric unit :

   No.  Atomic       x           y          z         Charge      Occupancy
        Label      (Frac)      (Frac)     (Frac)        (e)         (Frac)
      1 Sb    c    0.396797    0.396797    0.396797      0.0000    1.000000
      2 Sb    c    0.603203    0.603203    0.603203      0.0000    1.000000
      3 Te1   c    0.000000    0.000000    0.000000     -0.0000    1.000000
      4 Te2   c    0.784571    0.784571    0.784571     -0.0000    1.000000
      5 Te2   c    0.215429    0.215429    0.215429     -0.0000    1.000000

*  General input information                                                   *

  Species output for all configurations :

  Species    Type    Atomic    Atomic    Charge       Radii (Angs)     Library
                     Number     Mass       (e)     Cova   Ionic  VDW   Symbol
    Sb       Core       51     121.75     0.0000   1.460  0.000  2.170
    Te1      Core       52     127.60    -0.0000   1.470  0.000  2.200
    Te2      Core       52     127.60    -0.0000   1.470  0.000  2.200

  Lattice summation method               =    Ewald
  Accuracy factor for lattice sums       =    8.000

  Time limit = Infinity

  Maximum range for interatomic potentials =         8.000000 Angstroms

  Taper potentials to zero over   8.0000 Angstroms using Voter m =  20.0000

  General interatomic potentials :

Atom  Types   Potential         A         B         C         D     Cutoffs(Ang)
  1     2                                                            Min    Max
Sb   c Te2  c Morse         0.110      4.32     3.02     0.00       0.000 12.000
Sb   c Te1  c Morse         0.720E-01  1.64     3.30     0.00       0.000 12.000
Sb   c Sb   c Morse         0.720E-01 0.940     4.29     0.00       0.000 12.000
Te1  c Te1  c Morse         0.650E-01  1.05     4.36     0.00       0.000 12.000
Te1  c Te2  c Morse         0.580E-01  1.01     4.34     0.00       0.000 12.000
Te2  c Te2  c Morse         0.680E-01  2.75     3.90     0.00       0.000 12.000
Te2  c Te2  c Morse         0.550E-01  1.12     4.30     0.00       0.000 12.000

  Energy shifts for configurations :

      Configuration           Energy (eV)        Scale Factor
             1               -12.0000                 1.000
             2               -12.0000                 1.000
             3               -12.0000                 1.000
             4               -12.0000                 1.000
             5               -12.0000                 1.000
             6               -12.0000                 1.000
             7               -12.0000                 1.000
             8               -12.0000                 1.000
             9               -12.0000                 1.000
            10               -12.0000                 1.000
            11               -12.0000                 1.000
            12               -12.0000                 1.000
            13               -12.0000                 1.000
            14               -12.0000                 1.000
            15               -12.0000                 1.000
            16               -12.0000                 1.000
            17               -12.0000                 1.000
            18               -12.0000                 1.000
            19               -12.0000                 1.000
            20               -12.0000                 1.000
            21               -12.0000                 1.000
            22               -12.0000                 1.000
            23               -12.0000                 1.000
            24               -12.0000                 1.000
            25               -12.0000                 1.000
            26               -12.0000                 1.000
            27               -12.0000                 1.000
            28               -12.0000                 1.000
            29               -12.0000                 1.000
            30               -12.0000                 1.000
            31               -12.0000                 1.000
            32               -12.0000                 1.000
            33               -12.0000                 1.000
            34               -12.0000                 1.000
            35               -12.0000                 1.000
            36               -12.0000                 1.000
            37               -12.0000                 1.000
            38               -12.0000                 1.000
            39               -12.0000                 1.000
            40               -12.0000                 1.000
            41               -12.0000                 1.000
            42               -12.0000                 1.000
            43               -12.0000                 1.000
            44               -12.0000                 1.000
            45               -12.0000                 1.000
            46               -12.0000                 1.000
            47               -12.0000                 1.000
            48               -12.0000                 1.000
            49               -12.0000                 1.000
            50               -12.0000                 1.000
            51               -12.0000                 1.000
            52               -12.0000                 1.000
            53               -12.0000                 1.000
            54               -12.0000                 1.000
            55               -12.0000                 1.000
            56               -12.0000                 1.000
            57               -12.0000                 1.000
            58               -12.0000                 1.000

!! WARNING : Fitted parameter initially set to zero

!! WARNING : Fitted parameter initially set to zero

  Number of variables   =   24
  Number of observables =   63

   Observable no.  Type           Observable    Weight       Reference  Confign
          1        Energy          -18.310000        0.5000                1
          2        Energy          -18.280000        0.5000                2
          3        Energy          -18.230000        0.5000                3
          4        Energy          -18.160000        0.5000                4
          5        Energy          -18.070000        0.5000                5
          6        Energy          -18.310000        0.5000                6
          7        Energy          -18.280000        0.5000                7
          8        Energy          -18.230000        0.5000                8
          9        Energy          -18.160000        0.5000                9
         10        Energy          -18.070000        0.5000               10
         11        Energy          -18.310000        0.5000               11
         12        Energy          -18.280000        0.5000               12
         13        Energy          -18.230000        0.5000               13
         14        Energy          -18.160000        0.5000               14
         15        Energy          -18.070000        0.5000               15
         16        Energy          -18.310000        0.5000               16
         17        Energy          -18.300000        0.5000               17
         18        Energy          -18.260000        0.5000               18
         19        Energy          -18.220000        0.5000               19
         20        Energy          -18.160000        0.5000               20
         21        Energy          -18.310000        0.5000               21
         22        Energy          -18.300000        0.5000               22
         23        Energy          -18.260000        0.5000               23
         24        Energy          -18.220000        0.5000               24
         25        Energy          -18.160000        0.5000               25
         26        Energy          -18.310000        0.5000               26
         27        Energy          -18.300000        0.5000               27
         28        Energy          -18.260000        0.5000               28
         29        Energy          -18.220000        0.5000               29
         30        Energy          -18.160000        0.5000               30
         31        Energy          -18.310000        0.5000               31
         32        Energy          -18.290000        0.5000               32
         33        Energy          -18.260000        0.5000               33
         34        Energy          -18.210000        0.5000               34
         35        Energy          -18.150000        0.5000               35
         36        Energy          -18.310000        0.5000               36
         37        Energy          -18.290000        0.5000               37
         38        Energy          -18.260000        0.5000               38
         39        Energy          -18.210000        0.5000               39
         40        Energy          -18.150000        0.5000               40
         41        Energy          -18.310000        0.5000               41
         42        Energy          -18.290000        0.5000               42
[...]
         37        Energy           -18.29000    -15.21450    -18.25563
         38        Energy           -18.26000    -15.16450    -18.21806
         39        Energy           -18.21000    -15.10077    -18.17169
         40        Energy           -18.15000    -15.02166    -18.11705
         41        Energy           -18.31000    -15.25133    -18.28309
         42        Energy           -18.29000    -15.21450    -18.25563
         43        Energy           -18.26000    -15.16450    -18.21806
         44        Energy           -18.21000    -15.10077    -18.17169
         45        Energy           -18.15000    -15.02166    -18.11705
         46        Energy           -16.42000    -13.03681    -15.27142
         47        Energy           -17.33000    -14.46028    -17.01687
         48        Energy           -17.91000    -15.10012    -17.86674
         49        Energy           -18.23000    -15.30405    -18.21835
         50        Energy           -18.32000    -15.27439    -18.29826
         51        Energy           -18.24000    -15.12654    -18.23490
         52        Energy           -18.01000    -14.92614    -18.10076
         53        Energy           -17.66000    -14.70816    -17.93507
         54        Energy           -17.23000    -14.49014    -17.75901
         55        Energy           -16.72000    -14.27988    -17.58288
         56        Energy           -16.16000    -14.08193    -17.41255
         57        Energy           -18.31000    -15.27439    -18.29826
         58        Derivative         0.00000      1.44021      0.15157
         59        Derivative         0.00000      1.84155      0.10859
         60        Derivative         0.00000      1.85308      0.10736
         61        Derivative         0.00000     -0.01058      0.00113
         62        Derivative         0.00000     -0.05131      0.00549
         63        Derivative         0.00000     -0.08642      0.00925

  Maximum range for interatomic potentials =         8.000000 Angstroms

  Taper potentials to zero over   8.0000 Angstroms using Voter m =  20.0000

  General interatomic potentials :

Atom  Types   Potential         A         B         C         D     Cutoffs(Ang)
  1     2                                                            Min    Max
Sb   c Te2  c Morse         0.848E-01  4.54     3.05     0.00       0.000 12.000
Sb   c Te1  c Morse         0.936E-01  1.70     3.32     0.00       0.000 12.000
Sb   c Sb   c Morse         0.549E-01  1.03     4.34     0.00       0.000 12.000
Te1  c Te1  c Morse         0.554E-01  1.04     4.38     0.00       0.000 12.000
Te1  c Te2  c Morse         0.200E-01  1.02     4.53     0.00       0.000 12.000
Te2  c Te2  c Morse         0.549E-01  2.24     3.82     0.00       0.000 12.000
Te2  c Te2  c Morse         0.672E-01  1.12     4.30     0.00       0.000 12.000

  Energy shifts for configurations :

      Configuration           Energy (eV)        Scale Factor
             1               -15.4793                 1.000
             2               -15.4793                 1.000
             3               -15.4793                 1.000
             4               -15.4793                 1.000
             5               -15.4793                 1.000
             6               -15.4793                 1.000
             7               -15.4793                 1.000
             8               -15.4793                 1.000
             9               -15.4793                 1.000
            10               -15.4793                 1.000
            11               -15.4793                 1.000
            12               -15.4793                 1.000
            13               -15.4793                 1.000
            14               -15.4793                 1.000
            15               -15.4793                 1.000
            16               -15.4793                 1.000
            17               -15.4793                 1.000
            18               -15.4793                 1.000
            19               -15.4793                 1.000
            20               -15.4793                 1.000
            21               -15.4793                 1.000
            22               -15.4793                 1.000
            23               -15.4793                 1.000
            24               -15.4793                 1.000
            25               -15.4793                 1.000
            26               -15.4793                 1.000
            27               -15.4793                 1.000
            28               -15.4793                 1.000
            29               -15.4793                 1.000
            30               -15.4793                 1.000
            31               -15.4793                 1.000
            32               -15.4793                 1.000
            33               -15.4793                 1.000
            34               -15.4793                 1.000
            35               -15.4793                 1.000
            36               -15.4793                 1.000
            37               -15.4793                 1.000
            38               -15.4793                 1.000
            39               -15.4793                 1.000
            40               -15.4793                 1.000
            41               -15.4793                 1.000
            42               -15.4793                 1.000
            43               -15.4793                 1.000
            44               -15.4793                 1.000
            45               -15.4793                 1.000
            46               -15.4793                 1.000
            47               -15.4793                 1.000
            48               -15.4793                 1.000
            49               -15.4793                 1.000
            50               -15.4793                 1.000
            51               -15.4793                 1.000
            52               -15.4793                 1.000
            53               -15.4793                 1.000
            54               -15.4793                 1.000
            55               -15.4793                 1.000
            56               -15.4793                 1.000
            57               -15.4793                 1.000
            58               -15.4793                 1.000

  Total time to end of fitting =     446.4159 seconds

*  Output for configuration   1                                                *

!! WARNING : No variables to optimise - single point performed

  Components of energy :

  Interatomic potentials     =          -2.79065235 eV
  Monopole - monopole (real) =           0.00731841 eV
  Monopole - monopole (recip)=          -0.03281945 eV
  Monopole - monopole (total)=          -0.02550104 eV
  Energy shift               =         -15.47928967 eV
  Total lattice energy       =         -18.29544306 eV
  Total lattice energy       =           -1765.2306 kJ/(mole unit cells)

  Born effective charge tensors :

  Atom             x           y             z
   1 Sb    x       0.1091      0.0000      0.0000
           y       0.0000      0.1091      0.0000
           z       0.0000      0.0000      0.1091
   2 Sb    x       0.1091      0.0000      0.0000
           y       0.0000      0.1091      0.0000
           z       0.0000      0.0000      0.1091
   3 Te1   x       0.1600      0.0000      0.0000
           y       0.0000      0.1600      0.0000
           z       0.0000      0.0000      0.1600
   4 Te2   x      -0.1891      0.0000      0.0000
           y       0.0000     -0.1891      0.0000
           z       0.0000      0.0000     -0.1891
   5 Te2   x      -0.1891      0.0000      0.0000
           y       0.0000     -0.1891      0.0000
           z       0.0000      0.0000     -0.1891

  Elastic Constant Matrix: (Units=GPa)

  Indices      1         2         3         4         5         6
       1     35.5661   19.7227   25.4824   -5.2812   -1.6709   -2.8143
       2     19.7227   33.1958   17.0066    7.1411   10.7003    3.3582
       3     25.4824   17.0066   26.9407   -1.4056   -7.6567    1.7682
       4     -5.2812    7.1411   -1.4056   12.0373    1.5167   10.5510
       5     -1.6709   10.7003   -7.6567    1.5167   19.0654   -5.2516
       6     -2.8143    3.3582    1.7682   10.5510   -5.2516   13.3381

  Elastic Compliance Matrix: (Units=1/GPa)

[...]

 Mechanical properties :

  Convention :                    Reuss         Voigt         Hill
  Bulk  Modulus (GPa)     =      22.55994      24.45843      23.50919
  Shear Modulus (GPa)     =       1.58413      11.12087       6.35250
  Velocity S-wave (km/s)  =       1.60992       4.26557       3.22389
  Velocity P-wave (km/s)  =       6.35347       8.01729       7.23338
  Compressibility (1/GPa) =    0.04432635
  Stress axis :                     x             y             z
  Youngs Moduli (GPa)     =       7.19657       3.91252       2.97000
  Poissons Ratio (x)      =                     0.12961       0.33039
  Poissons Ratio (y)      =       0.23840                     0.59129
  Poissons Ratio (z)      =       0.80057       0.77894

  Piezoelectric Strain Matrix: (Units=C/m**2)

  Indices      1         2         3         4         5         6
       x     0.00369   0.02708   0.02792  -0.00077  -0.00024  -0.00041
       y     0.00452   0.00824   0.00589  -0.00019   0.00193  -0.01397
       z     0.00268   0.00265   0.00574   0.00111  -0.01607   0.00193

  Piezoelectric Stress Matrix: (Units=10**-11 C/N)

[...]

  Static dielectric constant tensor :

              x         y         z
       x     1.02781  -0.00061  -0.00036
       y    -0.00061   1.03203   0.00009
       z    -0.00036   0.00009   1.03192

  Static refractive indices :

    1 =    1.01375      2 =    1.01581      3 =    1.01597

  Time to end of properties =     446.4199 seconds

[...]

!! WARNING : No variables to optimise - single point performed

[...]

  Time to end of properties =     446.5679 seconds

*  Output for configuration  58                                                *

[...]

  Number of variables =      6

  Maximum number of calculations  =          1000
  Maximum Hessian update interval =            10
  Maximum step size               =   1.000000000
  Maximum parameter tolerance     =   0.000010000
  Maximum function  tolerance     =   0.000010000
  Maximum gradient  tolerance     =   0.001000000
  Maximum gradient  component     =   0.010000000

  Symmetry not applied to optimisation

  Cell parameters to be optimised using strains

  Newton-Raphson optimiser to be used

  BFGS hessian update to be used

  Dumpfile to be written after every cycle

  Start of bulk optimisation :

  ** Hessian calculated **

  **** Optimisation achieved ****

  Final energy =     -18.29854294 eV
  Final Gnorm  =       0.00002838

  Components of energy :

  Interatomic potentials     =          -2.79641188 eV
  Monopole - monopole (real) =           0.00962762 eV
  Monopole - monopole (recip)=          -0.03246902 eV
  Monopole - monopole (total)=          -0.02284140 eV
  Energy shift               =         -15.47928967 eV
  Total lattice energy       =         -18.29854294 eV
  Total lattice energy       =           -1765.5297 kJ/(mole unit cells)

  Final fractional coordinates of atoms :

   No.  Atomic        x           y          z          Radius
        Label       (Frac)      (Frac)     (Frac)       (Angs)
     1  Sb    c     0.396797    0.396797    0.396797    0.000000
     2  Sb    c     0.603203    0.603203    0.603203    0.000000
     3  Te1   c     0.000000    0.000000    0.000000    0.000000
     4  Te2   c     0.784571    0.784571    0.784571    0.000000
     5  Te2   c     0.215429    0.215429    0.215429    0.000000

  Final Cartesian lattice vectors (Angstroms) :

       10.691478   -0.011833   -0.007026
        9.814869    4.239834   -0.007026
        9.814869    2.023631    3.725743

  Final cell parameters and derivatives :

       a           10.691487 Angstrom     dE/de1(xx)     0.000115 eV/strain
       b           10.691487 Angstrom     dE/de2(yy)     0.000089 eV/strain
       c           10.691487 Angstrom     dE/de3(zz)     0.000088 eV/strain
       alpha       23.426826 Degrees      dE/de4(yz)     0.000001 eV/strain
       beta        23.426826 Degrees      dE/de5(xz)     0.000003 eV/strain
       gamma       23.426826 Degrees      dE/de6(xy)     0.000006 eV/strain

  Primitive cell volume =           169.626673 Angs**3

  Density of cell =      6.131183 g/cm**3

  Non-primitive cell volume =           169.626673 Angs**3

  Final internal derivatives :

   No.  Atomic          x             y             z           Radius
        Label          (eV)          (eV)          (eV)        (eV/Angs)
      1 Sb    c       0.000000      0.000000      0.000000      0.000000
      2 Sb    c       0.000000      0.000000      0.000000      0.000000
      3 Te1   c       0.000000      0.000000      0.000000      0.000000
      4 Te2   c       0.000000      0.000000      0.000000      0.000000
      5 Te2   c       0.000000      0.000000      0.000000      0.000000
  Maximum abs         0.000000      0.000000      0.000000      0.000000

  Born effective charge tensors :

  Atom             x           y             z
   1 Sb    x       0.1091      0.0000      0.0000
           y       0.0000      0.1091      0.0000
           z       0.0000      0.0000      0.1091
   2 Sb    x       0.1091      0.0000      0.0000
           y       0.0000      0.1091      0.0000
           z       0.0000      0.0000      0.1091
   3 Te1   x       0.1600      0.0000      0.0000
           y       0.0000      0.1600      0.0000
           z       0.0000      0.0000      0.1600
   4 Te2   x      -0.1891      0.0000      0.0000
           y       0.0000     -0.1891      0.0000
           z       0.0000      0.0000     -0.1891
   5 Te2   x      -0.1891      0.0000      0.0000
           y       0.0000     -0.1891      0.0000
           z       0.0000      0.0000     -0.1891

  Elastic Constant Matrix: (Units=GPa)

[...]

  Elastic Compliance Matrix: (Units=1/GPa)

  Indices      1         2         3         4         5         6
       1    0.120153 -0.033062 -0.086282  0.097598 -0.025066 -0.042220
       2   -0.033062  0.216769 -0.163699 -0.140224 -0.181676  0.000610
       3   -0.086282 -0.163699  0.270541  0.041614  0.201834  0.033341
       4    0.097598 -0.140224  0.041614  0.580396 -0.062863 -0.440266
       5   -0.025066 -0.181676  0.201834 -0.062863  0.288465  0.179338
       6   -0.042220  0.000610  0.033341 -0.440266  0.179338  0.484050

 Mechanical properties :

  Convention :                    Reuss         Voigt         Hill
  Bulk  Modulus (GPa)     =      24.16846      25.21678      24.69262
  Shear Modulus (GPa)     =       1.96831      11.79061       6.87946
  Velocity S-wave (km/s)  =       1.79174       4.38527       3.34969
  Velocity P-wave (km/s)  =       6.61055       8.17126       7.43199
  Compressibility (1/GPa) =    0.04137625
  Stress axis :                     x             y             z
  Youngs Moduli (GPa)     =       8.32275       4.61320       3.69630
  Poissons Ratio (x)      =                     0.15252       0.31892
  Poissons Ratio (y)      =       0.27517                     0.60508
  Poissons Ratio (z)      =       0.71810       0.75518

  Piezoelectric Strain Matrix: (Units=C/m**2)

[...]

  Piezoelectric Stress Matrix: (Units=10**-11 C/N)

  Indices      1         2         3         4         5         6
       x    -0.00000   0.00000   0.00000  -0.00000  -0.00000  -0.00000
       y    -0.00000   0.00000   0.00000   0.00000  -0.00000  -0.00000
       z    -0.00000   0.00000  -0.00000   0.00000   0.00000  -0.00000

  Static dielectric constant tensor :

              x         y         z
       x     1.02938  -0.00062  -0.00037
       y    -0.00062   1.03226  -0.00008
       z    -0.00037  -0.00008   1.03235

  Static refractive indices :

    1 =    1.01450      2 =    1.01607      3 =    1.01607

  Time to end of optimisation =     446.6079 seconds

  Timing analysis for GULP :

  Task / Subroutine                                          Time (Seconds)
  Calculation of reciprocal space energy and derivatives         26.9218
  Calculation of real space energy and derivatives              406.8254
  Sum of squares for fitting                                     10.1046
  Global summation overhead                                       0.4080

  Dump file written as sb2te3.res

  **** GULP has completed with  59 warnings - beware! ****

  Job Finished at 13:38.28 21st June       2010