  Job Started  at 11:17.12 21st June       2010

  Number of CPUs =     1

  Total number of configurations input = 151

*  Input for Configuration =   1                                               *

  Formula = Sb2Te3

  Number of irreducible atoms/shells =       5

  Total number atoms/shells =       5

  Dimensionality = 3               :  Bulk

  Cartesian lattice vectors (Angstroms) :

       -2.504286    0.000000   10.443767
        1.252143   -2.168775   10.443767
        1.252143    2.168775   10.443767

  Cell parameters (Angstroms/Degrees):

  a =      10.7398    alpha =  23.3006
  b =      10.7398    beta  =  23.3006
  c =      10.7398    gamma =  23.3006

  Initial cell volume =         170.167643 Angs**3

  Temperature of configuration =  0.000     K

  Pressure of configuration =         0.000 GPa

  Fractional coordinates of asymmetric unit :

   No.  Atomic       x           y          z         Charge      Occupancy
        Label      (Frac)      (Frac)     (Frac)        (e)         (Frac)
      1 Sb    c    0.369021    0.369021    0.369021      0.0000    1.000000
      2 Sb    c    0.603203    0.603203    0.603203      0.0000    1.000000
      3 Te1   c    0.000000    0.000000    0.000000     -0.0000    1.000000
      4 Te2   c    0.784571    0.784571    0.784571     -0.0000    1.000000
      5 Te2   c    0.215429    0.215429    0.215429     -0.0000    1.000000

[...]

*  Input for Configuration = 151                                               *

  Formula = Sb2Te3

  Number of irreducible atoms/shells =       5

  Total number atoms/shells =       5

  Dimensionality = 3               :  Bulk

  Cartesian lattice vectors (Angstroms) :

[...]

  Cell parameters (Angstroms/Degrees):

  a =      10.7398    alpha =  23.3000
  b =      10.7398    beta  =  23.3000
  c =      10.7398    gamma =  23.3000

  Initial cell volume =         170.158355 Angs**3

  Temperature of configuration =  0.000     K

  Pressure of configuration =         0.000 GPa

  Fractional coordinates of asymmetric unit :

   No.  Atomic       x           y          z         Charge      Occupancy
        Label      (Frac)      (Frac)     (Frac)        (e)         (Frac)
      1 Sb    c    0.396797    0.396797    0.396797      0.0000    1.000000
      2 Sb    c    0.603203    0.603203    0.603203      0.0000    1.000000
      3 Te1   c    0.000000    0.000000    0.000000     -0.0000    1.000000
      4 Te2   c    0.784571    0.784571    0.784571     -0.0000    1.000000
      5 Te2   c    0.215429    0.215429    0.215429     -0.0000    1.000000

*  General input information                                                   *

  Species output for all configurations :

  Species    Type    Atomic    Atomic    Charge       Radii (Angs)     Library
                     Number     Mass       (e)     Cova   Ionic  VDW   Symbol
    Sb       Core       51     121.75     0.0000   1.460  0.000  2.170
    Te1      Core       52     127.60    -0.0000   1.470  0.000  2.200
    Te2      Core       52     127.60    -0.0000   1.470  0.000  2.200

  Lattice summation method               =    Ewald
  Accuracy factor for lattice sums       =    8.000

  Time limit = Infinity

  Maximum range for interatomic potentials =         8.000000 Angstroms

  Taper potentials to zero over   8.0000 Angstroms using Voter m =  20.0000

  General interatomic potentials :

Atom  Types   Potential         A         B         C         D     Cutoffs(Ang)
  1     2                                                            Min    Max
Sb   c Te2  c Morse         0.100      3.65     3.03     0.00       0.000 12.000
Sb   c Te1  c Morse         0.100      1.18     3.20     0.00       0.000 12.000
Sb   c Sb   c Morse         0.500E-01  1.00     4.34     0.00       0.000 12.000
Te1  c Te1  c Morse         0.730E-01  1.07     4.34     0.00       0.000 12.000
Te1  c Te2  c Morse         0.470E-01  1.07     4.47     0.00       0.000 12.000
Te2  c Te2  c Morse         0.740E-01  2.72     3.93     0.00       0.000 12.000
Te2  c Te2  c Morse         0.500E-01  1.00     4.34     0.00       0.000 12.000

  Energy shifts for configurations :

      Configuration           Energy (eV)        Scale Factor
             1               -12.0000                 1.000
             2               -12.0000                 1.000
             3               -12.0000                 1.000
             4               -12.0000                 1.000
             5               -12.0000                 1.000
             6               -12.0000                 1.000
             7               -12.0000                 1.000
             8               -12.0000                 1.000
             9               -12.0000                 1.000
            10               -12.0000                 1.000
            11               -12.0000                 1.000
            12               -12.0000                 1.000
            13               -12.0000                 1.000
            14               -12.0000                 1.000
            15               -12.0000                 1.000
            16               -12.0000                 1.000
            17               -12.0000                 1.000
            18               -12.0000                 1.000
            19               -12.0000                 1.000
            20               -12.0000                 1.000
            21               -12.0000                 1.000
            22               -12.0000                 1.000
            23               -12.0000                 1.000
            24               -12.0000                 1.000
            25               -12.0000                 1.000
            26               -12.0000                 1.000
            27               -12.0000                 1.000
            28               -12.0000                 1.000
            29               -12.0000                 1.000
            30               -12.0000                 1.000
            31               -12.0000                 1.000
            32               -12.0000                 1.000
            33               -12.0000                 1.000
            34               -12.0000                 1.000
            35               -12.0000                 1.000
            36               -12.0000                 1.000
            37               -12.0000                 1.000
            38               -12.0000                 1.000
            39               -12.0000                 1.000
            40               -12.0000                 1.000
            41               -12.0000                 1.000
            42               -12.0000                 1.000
            43               -12.0000                 1.000
            44               -12.0000                 1.000
            45               -12.0000                 1.000
            46               -12.0000                 1.000
            47               -12.0000                 1.000
            48               -12.0000                 1.000
            49               -12.0000                 1.000
            50               -12.0000                 1.000
            51               -12.0000                 1.000
            52               -12.0000                 1.000
            53               -12.0000                 1.000
            54               -12.0000                 1.000
            55               -12.0000                 1.000
            56               -12.0000                 1.000
            57               -12.0000                 1.000
            58               -12.0000                 1.000
            59               -12.0000                 1.000
            60               -12.0000                 1.000
[...]
           137               -12.0000                 1.000
           138               -12.0000                 1.000
           139               -12.0000                 1.000
           140               -12.0000                 1.000
           141               -12.0000                 1.000
           142               -12.0000                 1.000
           143               -12.0000                 1.000
           144               -12.0000                 1.000
           145               -12.0000                 1.000
           146               -12.0000                 1.000
           147               -12.0000                 1.000
           148               -12.0000                 1.000
           149               -12.0000                 1.000
           150               -12.0000                 1.000
           151               -12.0000                 1.000

  Number of variables   =   22
  Number of observables =  163

   Observable no.  Type           Observable    Weight       Reference  Confign
          1        Energy          -16.066600        0.0000                1
          2        Energy          -16.584500        0.0000                2
          3        Energy          -17.060200        0.0000                3
          4        Energy          -17.480900        0.0000                4
          5        Energy          -17.831400        0.1000                5
          6        Energy          -18.095000        0.5000                6
          7        Energy          -18.258200        0.5000                7
          8        Energy          -18.313000        1.0000                8
          9        Energy          -18.257900        0.5000                9
         10        Energy          -18.096800        0.2000               10
         11        Energy          -17.838700        0.1000               11
         12        Energy          -17.496800        0.0000               12
         13        Energy          -17.088900        0.0000               13
         14        Energy          -16.635400        0.0000               14
         15        Energy          -16.162800        0.0000               15
         16        Energy          -14.700000        0.0000               16
         17        Energy          -15.230000        0.0000               17
         18        Energy          -15.880000        0.0000               18
         19        Energy          -16.600000        0.0000               19
         20        Energy          -17.270000        0.1000               20
         21        Energy          -17.830000        0.2000               21
         22        Energy          -18.190000        0.5000               22
         23        Energy          -18.310000        1.0000               23
         24        Energy          -18.190000        0.5000               24
         25        Energy          -17.820000        0.2000               25
         26        Energy          -17.250000        0.1000               26
         27        Energy          -16.540000        0.0000               27
         28        Energy          -15.740000        0.0000               28
         29        Energy          -14.900000        0.0000               29
         30        Energy          -14.070000        0.0000               30
[...]
         52        Energy           -18.14930    -15.06583    -17.75058
         53        Energy           -18.31000    -15.20592    -17.94278
         54        Energy           -18.16658    -15.02875    -17.74020
         55        Energy           -17.80969    -14.37807    -17.11767
         56        Energy           -17.40109    -12.58921    -15.51110
         57        Energy           -17.08769     -8.10492    -11.54328
         58        Energy           -16.85947      2.13335     -2.49369
         59        Energy           -16.57300     23.27983     16.25809
         60        Energy           -16.10155     62.42096     51.13432
[...]
        136        Energy           -18.26000    -15.12937    -17.84873
        137        Energy           -18.21000    -15.07407    -17.78843
        138        Energy           -18.15000    -15.00034    -17.71184
        139        Energy           -16.42000    -13.80763    -15.42360
        140        Energy           -17.33000    -14.71464    -16.98831
        141        Energy           -17.91000    -15.12931    -17.70613
        142        Energy           -18.23000    -15.25140    -17.95158
        143        Energy           -18.32000    -15.20592    -17.94278
        144        Energy           -18.24000    -15.06923    -17.80423
        145        Energy           -18.01000    -14.88809    -17.60677
        146        Energy           -17.66000    -14.68963    -17.38837
        147        Energy           -17.23000    -14.48867    -17.16819
        148        Energy           -16.72000    -14.29256    -16.95500
        149        Energy           -16.16000    -14.10591    -16.75386
        150        Energy           -18.31000    -15.20604    -17.94288
        151        Elastic Const     64.99800     25.86763     36.94265
        152        Elastic Const     15.38046      9.77976     17.21704
        153        Elastic Const     11.74897     12.75517     23.20521
        154        Elastic Const      7.34913     -0.56182     -1.78211
        155        Elastic Const     24.80883      7.33090     12.80892
        156        Elastic Const     11.80193     12.42238     21.27117
        157        Elastic Const     11.80193      9.38483     15.22195
        158        Derivative         0.00000      0.75214      0.76344
        159        Derivative         0.00000      2.11922      1.81893
        160        Derivative         0.00000      2.15852      1.84928
        161        Derivative         0.00000     -0.03604     -0.02782
        162        Derivative         0.00000     -0.17478     -0.13494
        163        Derivative         0.00000     -0.29438     -0.22728

  Maximum range for interatomic potentials =         8.000000 Angstroms

  Taper potentials to zero over   8.0000 Angstroms using Voter m =  20.0000

  General interatomic potentials :

Atom  Types   Potential         A         B         C         D     Cutoffs(Ang)
  1     2                                                            Min    Max
Sb   c Te2  c Morse         0.113      4.33     3.03     0.00       0.000 12.000
Sb   c Te1  c Morse         0.724E-01  1.64     3.32     0.00       0.000 12.000
Sb   c Sb   c Morse         0.728E-01 0.941     4.30     0.00       0.000 12.000
Te1  c Te1  c Morse         0.653E-01  1.06     4.36     0.00       0.000 12.000
Te1  c Te2  c Morse         0.590E-01  1.02     4.34     0.00       0.000 12.000
Te2  c Te2  c Morse         0.689E-01  2.76     3.90     0.00       0.000 12.000
Te2  c Te2  c Morse         0.558E-01  1.13     4.30     0.00       0.000 12.000

  Energy shifts for configurations :

      Configuration           Energy (eV)        Scale Factor
             1               -14.6617                 1.000
             2               -14.6617                 1.000
             3               -14.6617                 1.000
             4               -14.6617                 1.000
             5               -14.6617                 1.000
             6               -14.6617                 1.000
             7               -14.6617                 1.000
             8               -14.6617                 1.000
             9               -14.6617                 1.000
            10               -14.6617                 1.000
            11               -14.6617                 1.000
            12               -14.6617                 1.000
            13               -14.6617                 1.000
            14               -14.6617                 1.000
            15               -14.6617                 1.000
            16               -14.6617                 1.000
            17               -14.6617                 1.000
            18               -14.6617                 1.000
            19               -14.6617                 1.000
            20               -14.6617                 1.000
            21               -14.6617                 1.000
            22               -14.6617                 1.000
            23               -14.6617                 1.000
            24               -14.6617                 1.000
            25               -14.6617                 1.000
            26               -14.6617                 1.000
            27               -14.6617                 1.000
            28               -14.6617                 1.000
            29               -14.6617                 1.000
            30               -14.6617                 1.000
            31               -14.6617                 1.000
            32               -14.6617                 1.000
            33               -14.6617                 1.000
            34               -14.6617                 1.000
            35               -14.6617                 1.000
            36               -14.6617                 1.000
            37               -14.6617                 1.000
            38               -14.6617                 1.000
            39               -14.6617                 1.000
            40               -14.6617                 1.000
            41               -14.6617                 1.000
            42               -14.6617                 1.000
            43               -14.6617                 1.000
            44               -14.6617                 1.000
            45               -14.6617                 1.000
            46               -14.6617                 1.000
            47               -14.6617                 1.000
            48               -14.6617                 1.000
            49               -14.6617                 1.000
            50               -14.6617                 1.000
            51               -14.6617                 1.000
            52               -14.6617                 1.000
            53               -14.6617                 1.000
            54               -14.6617                 1.000
            55               -14.6617                 1.000
            56               -14.6617                 1.000
            57               -14.6617                 1.000
            58               -14.6617                 1.000
            59               -14.6617                 1.000
            60               -14.6617                 1.000
[...]
           137               -14.6617                 1.000
           138               -14.6617                 1.000
           139               -14.6617                 1.000
           140               -14.6617                 1.000
           141               -14.6617                 1.000
           142               -14.6617                 1.000
           143               -14.6617                 1.000
           144               -14.6617                 1.000
           145               -14.6617                 1.000
           146               -14.6617                 1.000
           147               -14.6617                 1.000
           148               -14.6617                 1.000
           149               -14.6617                 1.000
           150               -14.6617                 1.000
           151               -14.6617                 1.000

  Total time to end of fitting =     709.4603 seconds

*  Output for configuration   1                                                *

!! WARNING : No variables to optimise - single point performed

  Components of energy :

  Interatomic potentials     =          -2.49618466 eV
  Monopole - monopole (real) =           0.00000000 eV
  Monopole - monopole (recip)=           0.00000000 eV
  Monopole - monopole (total)=           0.00000000 eV
  Energy shift               =         -14.66170496 eV
  Total lattice energy       =         -17.15788963 eV
  Total lattice energy       =           -1655.4741 kJ/(mole unit cells)

  Elastic Constant Matrix: (Units=GPa)

  Indices      1         2         3         4         5         6
       1    -87.2395  -56.9934  -61.6719   -0.0000  -20.9706    0.0000
       2    -56.9934  -87.2395  -61.6719   -0.0000   20.9706    0.0000
       3    -61.6719  -61.6719  -59.7453   -0.0000    0.0000    0.0000
       4     -0.0000   -0.0000   -0.0000  -30.0164    0.0000   20.9706
       5    -20.9706   20.9706    0.0000    0.0000  -30.0164   -0.0000
       6      0.0000    0.0000    0.0000   20.9706   -0.0000  -15.1231

  Elastic Compliance Matrix: (Units=1/GPa)

[...]

 Mechanical properties :

  Convention :                    Reuss         Voigt         Hill
  Bulk  Modulus (GPa)     =     -59.30959     -66.09987     -62.70473
  Shear Modulus (GPa)     =      -0.73947     -18.62364      -9.68156
  Velocity S-wave (km/s)  =      -1.09996      -5.52016      -3.98008
  Velocity P-wave (km/s)  =       9.93258      12.19765      11.12292
  Compressibility (1/GPa) =   -0.01686068
  Stress axis :                     x             y             z
  Youngs Moduli (GPa)     =      -1.78899      -1.78899      -7.00524
  Poissons Ratio (x)      =                     0.89421       0.42759
  Poissons Ratio (y)      =       0.89421                     0.42759
  Poissons Ratio (z)      =       0.10920       0.10920

  Piezoelectric Strain Matrix: (Units=C/m**2)

  Indices      1         2         3         4         5         6
       x    -0.00000  -0.00000  -0.00000  -0.00000  -0.00000  -0.00000
       y    -0.00000  -0.00000  -0.00000  -0.00000  -0.00000  -0.00000
       z    -0.00000  -0.00000  -0.00000  -0.00000  -0.00000  -0.00000

  Piezoelectric Stress Matrix: (Units=10**-11 C/N)

[...]

  Static dielectric constant tensor :

              x         y         z
       x     1.00000   0.00000   0.00000
       y     0.00000   1.00000   0.00000
       z     0.00000   0.00000   1.00000

  Static refractive indices :

    1 =    1.00000      2 =    1.00000      3 =    1.00000

  Time to end of properties =     709.4603 seconds

[...]

!! WARNING : No variables to optimise - single point performed

[...]

  Time to end of properties =     709.6924 seconds

*  Output for configuration 151                                                *

[...]

  Number of variables =      6

  Maximum number of calculations  =          1000
  Maximum Hessian update interval =            10
  Maximum step size               =   1.000000000
  Maximum parameter tolerance     =   0.000010000
  Maximum function  tolerance     =   0.000010000
  Maximum gradient  tolerance     =   0.001000000
  Maximum gradient  component     =   0.010000000

  Symmetry not applied to optimisation

  Cell parameters to be optimised using strains

  Newton-Raphson optimiser to be used

  BFGS hessian update to be used

  Dumpfile to be written after every cycle

  Start of bulk optimisation :

  ** Hessian calculated **

  **** Optimisation achieved ****

  Final energy =     -18.02338653 eV
  Final Gnorm  =       0.00000261

  Components of energy :

  Interatomic potentials     =          -3.36168157 eV
  Monopole - monopole (real) =           0.00000000 eV
  Monopole - monopole (recip)=           0.00000000 eV
  Monopole - monopole (total)=           0.00000000 eV
  Energy shift               =         -14.66170496 eV
  Total lattice energy       =         -18.02338653 eV
  Total lattice energy       =           -1738.9813 kJ/(mole unit cells)

  Final fractional coordinates of atoms :

   No.  Atomic        x           y          z          Radius
        Label       (Frac)      (Frac)     (Frac)       (Angs)
     1  Sb    c     0.396797    0.396797    0.396797    0.000000
     2  Sb    c     0.603203    0.603203    0.603203    0.000000
     3  Te1   c     0.000000    0.000000    0.000000    0.000000
     4  Te2   c     0.784571    0.784571    0.784571    0.000000
     5  Te2   c     0.215429    0.215429    0.215429    0.000000

  Final Cartesian lattice vectors (Angstroms) :

       11.344389    0.234397    0.139165
       10.511927    4.271941    0.139165
       10.511927    2.167350    3.683943

  Final cell parameters and derivatives :

       a           11.347663 Angstrom     dE/de1(xx)    -0.000015 eV/strain
       b           11.347663 Angstrom     dE/de2(yy)     0.000000 eV/strain
       c           11.347663 Angstrom     dE/de3(zz)     0.000001 eV/strain
       alpha       20.931061 Degrees      dE/de4(yz)    -0.000000 eV/strain
       beta        20.931061 Degrees      dE/de5(xz)    -0.000002 eV/strain
       gamma       20.931061 Degrees      dE/de6(xy)    -0.000003 eV/strain

  Primitive cell volume =           163.298598 Angs**3

  Density of cell =      6.368776 g/cm**3

  Non-primitive cell volume =           163.298598 Angs**3

  Final internal derivatives :

   No.  Atomic          x             y             z           Radius
        Label          (eV)          (eV)          (eV)        (eV/Angs)
      1 Sb    c       0.000000      0.000000      0.000000      0.000000
      2 Sb    c       0.000000      0.000000      0.000000      0.000000
      3 Te1   c       0.000000      0.000000      0.000000      0.000000
      4 Te2   c       0.000000      0.000000      0.000000      0.000000
      5 Te2   c       0.000000      0.000000      0.000000      0.000000
  Maximum abs         0.000000      0.000000      0.000000      0.000000

  Elastic Constant Matrix: (Units=GPa)

[...]

  Elastic Compliance Matrix: (Units=1/GPa)

  Indices      1         2         3         4         5         6
       1    0.045215 -0.013850 -0.025605  0.021557 -0.003259 -0.005489
       2   -0.013850  0.063614 -0.032711 -0.030890 -0.042006 -0.002435
       3   -0.025605 -0.032711  0.075694  0.008737  0.042377  0.003060
       4    0.021557 -0.030890  0.008737  0.153667 -0.012050 -0.094800
       5   -0.003259 -0.042006  0.042377 -0.012050  0.097709  0.040890
       6   -0.005489 -0.002435  0.003060 -0.094800  0.040890  0.142304

 Mechanical properties :

  Convention :                    Reuss         Voigt         Hill
  Bulk  Modulus (GPa)     =      24.88177      25.86022      25.37100
  Shear Modulus (GPa)     =       6.79412      13.15637       9.97524
  Velocity S-wave (km/s)  =       3.26617       4.54506       3.95762
  Velocity P-wave (km/s)  =       7.30015       8.25519       7.79232
  Compressibility (1/GPa) =    0.04019007
  Stress axis :                     x             y             z
  Youngs Moduli (GPa)     =      22.11659      15.71986      13.21117
  Poissons Ratio (x)      =                     0.21772       0.33827
  Poissons Ratio (y)      =       0.30631                     0.43215
  Poissons Ratio (z)      =       0.56629       0.51422

  Piezoelectric Strain Matrix: (Units=C/m**2)

[...]

  Piezoelectric Stress Matrix: (Units=10**-11 C/N)

  Indices      1         2         3         4         5         6
       x     0.00000   0.00000   0.00000   0.00000   0.00000   0.00000
       y     0.00000   0.00000   0.00000   0.00000   0.00000   0.00000
       z     0.00000   0.00000   0.00000   0.00000   0.00000   0.00000

  Static dielectric constant tensor :

              x         y         z
       x     1.00000   0.00000   0.00000
       y     0.00000   1.00000   0.00000
       z     0.00000   0.00000   1.00000

  Static refractive indices :

    1 =    1.00000      2 =    1.00000      3 =    1.00000

  Time to end of optimisation =     709.8204 seconds

  Timing analysis for GULP :

  Task / Subroutine                                          Time (Seconds)
  Calculation of real space energy and derivatives              686.2669
  Sum of squares for fitting                                     16.2650
  Global summation overhead                                       0.5000

  Dump file written as sb2te3.res

  **** GULP has completed with 150 warnings - beware! ****

  Job Finished at 11:29.03 21st June       2010