  Job Started  at 14:49.33 22nd June       2010

  Number of CPUs =     1

  Total number of configurations input = 133

*  Input for Configuration =   1                                               *

  Formula = Sb2Te3

  Number of irreducible atoms/shells =       5

  Total number atoms/shells =       5

  Dimensionality = 3               :  Bulk

  Cartesian lattice vectors (Angstroms) :

       -2.504286    0.000000   10.443767
        1.252143   -2.168775   10.443767
        1.252143    2.168775   10.443767

  Cell parameters (Angstroms/Degrees):

  a =      10.7398    alpha =  23.3006
  b =      10.7398    beta  =  23.3006
  c =      10.7398    gamma =  23.3006

  Initial cell volume =         170.167643 Angs**3

  Temperature of configuration =  0.000     K

  Pressure of configuration =         0.000 GPa

  Fractional coordinates of asymmetric unit :

   No.  Atomic       x           y          z         Charge      Occupancy
        Label      (Frac)      (Frac)     (Frac)        (e)         (Frac)
      1 Sb    c    0.369021    0.369021    0.369021      0.0000    1.000000
      2 Sb    c    0.603203    0.603203    0.603203      0.0000    1.000000
      3 Te1   c    0.000000    0.000000    0.000000      0.0000    1.000000
      4 Te2   c    0.784571    0.784571    0.784571     -0.0000    1.000000
      5 Te2   c    0.215429    0.215429    0.215429     -0.0000    1.000000

[...]

   No.  Atomic       x           y          z         Charge      Occupancy
        Label      (Frac)      (Frac)     (Frac)        (e)         (Frac)
      1 Sb    c    0.396797    0.396797    0.396797      0.0000    1.000000
      2 Sb    c    0.603203    0.603203    0.603203      0.0000    1.000000
      3 Te1   c    0.000000    0.000000    0.000000      0.0000    1.000000
      4 Te2   c    0.784571    0.784571    0.784571     -0.0000    1.000000
      5 Te2   c    0.215429    0.215429    0.215429     -0.0000    1.000000

*  Input for Configuration = 133                                               *

  Formula = Sb2Te3

  Number of irreducible atoms/shells =       5

  Total number atoms/shells =       5

  Dimensionality = 3               :  Bulk

  Cartesian lattice vectors (Angstroms) :

[...]

  Cell parameters (Angstroms/Degrees):

  a =      10.7398    alpha =  23.3000
  b =      10.7398    beta  =  23.3000
  c =      10.7398    gamma =  23.3000

  Initial cell volume =         170.158355 Angs**3

  Temperature of configuration =  0.000     K

  Pressure of configuration =         0.000 GPa

  Fractional coordinates of asymmetric unit :

   No.  Atomic       x           y          z         Charge      Occupancy
        Label      (Frac)      (Frac)     (Frac)        (e)         (Frac)
      1 Sb    c    0.396797    0.396797    0.396797      0.0000    1.000000
      2 Sb    c    0.603203 *  0.603203 *  0.603203 *    0.0000    1.000000
      3 Te1   c    0.000000 *  0.000000 *  0.000000 *    0.0000    1.000000
      4 Te2   c    0.784571 *  0.784571 *  0.784571 *   -0.0000    1.000000
      5 Te2   c    0.215429 *  0.215429 *  0.215429 *   -0.0000    1.000000

*  General input information                                                   *

  Species output for all configurations :

  Species    Type    Atomic    Atomic    Charge       Radii (Angs)     Library
                     Number     Mass       (e)     Cova   Ionic  VDW   Symbol
    Sb       Core       51     121.75     0.0000   1.460  0.000  2.170
    Te1      Core       52     127.60     0.0000   1.470  0.000  2.200
    Te2      Core       52     127.60    -0.0000   1.470  0.000  2.200

  Lattice summation method               =    Ewald
  Accuracy factor for lattice sums       =    8.000

  Time limit = Infinity

  Maximum range for interatomic potentials =         8.000000 Angstroms

  Taper potentials to zero over   8.0000 Angstroms using Voter m =  20.0000

  General interatomic potentials :

Atom  Types   Potential         A         B         C         D     Cutoffs(Ang)
  1     2                                                            Min    Max
Sb   c Te2  c Morse         0.144      3.46     3.05     0.00       0.000 12.000
Sb   c Te1  c Morse         0.430      1.62     3.19     0.00       0.000 12.000
Te1  c Te1  c Morse         0.166E-01 0.960     4.45     0.00       0.000 12.000
Te1  c Te2  c Morse         0.230E-01 0.540     4.50     0.00       0.000 12.000
Te2  c Te2  c Morse         0.118      2.75     3.92     0.00       0.000 12.000

  Energy shifts for configurations :

      Configuration           Energy (eV)        Scale Factor
             1               -14.6000                 1.000
             2               -14.6000                 1.000
             3               -14.6000                 1.000
             4               -14.6000                 1.000
             5               -14.6000                 1.000
             6               -14.6000                 1.000
             7               -14.6000                 1.000
             8               -14.6000                 1.000
             9               -14.6000                 1.000
            10               -14.6000                 1.000
            11               -14.6000                 1.000
            12               -14.6000                 1.000
            13               -14.6000                 1.000
            14               -14.6000                 1.000
            15               -14.6000                 1.000
            16               -14.6000                 1.000
            17               -14.6000                 1.000
            18               -14.6000                 1.000
            19               -14.6000                 1.000
            20               -14.6000                 1.000
            21               -14.6000                 1.000
            22               -14.6000                 1.000
            23               -14.6000                 1.000
            24               -14.6000                 1.000
            25               -14.6000                 1.000
            26               -14.6000                 1.000
            27               -14.6000                 1.000
            28               -14.6000                 1.000
            29               -14.6000                 1.000
            30               -14.6000                 1.000
            31               -14.6000                 1.000
            32               -14.6000                 1.000
            33               -14.6000                 1.000
            34               -14.6000                 1.000
            35               -14.6000                 1.000
            36               -14.6000                 1.000
            37               -14.6000                 1.000
            38               -14.6000                 1.000
            39               -14.6000                 1.000
            40               -14.6000                 1.000
            41               -14.6000                 1.000
            42               -14.6000                 1.000
            43               -14.6000                 1.000
            44               -14.6000                 1.000
            45               -14.6000                 1.000
            46               -14.6000                 1.000
            47               -14.6000                 1.000
            48               -14.6000                 1.000
            49               -14.6000                 1.000
            50               -14.6000                 1.000
            51               -14.6000                 1.000
            52               -14.6000                 1.000
            53               -14.6000                 1.000
            54               -14.6000                 1.000
            55               -14.6000                 1.000
            56               -14.6000                 1.000
            57               -14.6000                 1.000
            58               -14.6000                 1.000
            59               -14.6000                 1.000
            60               -14.6000                 1.000
[...]
           119               -14.6000                 1.000
           120               -14.6000                 1.000
           121               -14.6000                 1.000
           122               -14.6000                 1.000
           123               -14.6000                 1.000
           124               -14.6000                 1.000
           125               -14.6000                 1.000
           126               -14.6000                 1.000
           127               -14.6000                 1.000
           128               -14.6000                 1.000
           129               -14.6000                 1.000
           130               -14.6000                 1.000
           131               -14.6000                 1.000
           132               -14.6000                 1.000
           133               -14.6000                 1.000

  Number of variables   =   16
  Number of observables =  150

   Observable no.  Type           Observable    Weight       Reference  Confign
          1        Energy          -16.066600        0.0000                1
          2        Energy          -16.584500        0.0000                2
          3        Energy          -17.060200        0.0000                3
          4        Energy          -17.480900        0.0000                4
          5        Energy          -17.831400        0.0000                5
          6        Energy          -18.095000        0.0000                6
          7        Energy          -18.258200        0.0000                7
          8        Energy          -18.313000        0.0000                8
          9        Energy          -18.257900        0.0000                9
         10        Energy          -18.096800        0.0000               10
         11        Energy          -17.838700        0.0000               11
         12        Energy          -17.496800        0.0000               12
         13        Energy          -17.088900        0.0000               13
         14        Energy          -16.635400        0.0000               14
         15        Energy          -16.162800        0.0000               15
         16        Energy          -14.700000        0.0000               16
         17        Energy          -15.230000        0.0000               17
         18        Energy          -15.880000        0.0000               18
         19        Energy          -16.600000        0.0000               19
         20        Energy          -17.270000        0.0000               20
         21        Energy          -17.830000        0.0000               21
         22        Energy          -18.190000        0.0000               22
         23        Energy          -18.310000        0.0000               23
         24        Energy          -18.190000        0.0000               24
         25        Energy          -17.820000        0.0000               25
[...]
         55        Energy           -17.80969    -18.14450    -17.62334
         56        Energy           -17.40109    -15.59610    -16.25184
         57        Energy           -17.08769     -8.84076    -13.09962
         58        Energy           -16.85947      7.09168     -6.36932
         59        Energy           -16.57300     40.69811      6.77913
         60        Energy           -16.10155    103.82450     29.96126
[...]
        118        Energy           -18.26000    -19.07788    -18.26303
        119        Energy           -18.21000    -19.02157    -18.21422
        120        Energy           -18.15000    -18.93915    -18.14899
        121        Energy           -16.42000    -16.56036    -16.41376
        122        Energy           -17.33000    -18.08493    -17.42149
        123        Energy           -17.91000    -18.84004    -17.99023
        124        Energy           -18.23000    -19.12259    -18.25829
        125        Energy           -18.32000    -19.12245    -18.32365
        126        Energy           -18.24000    -18.95888    -18.25470
        127        Energy           -18.01000    -18.70704    -18.09974
        128        Energy           -17.66000    -18.41448    -17.89327
        129        Energy           -17.23000    -18.10867    -17.65819
        130        Energy           -16.72000    -17.80602    -17.41038
        131        Energy           -16.16000    -17.51635    -17.16105
        132        Energy           -18.31000    -19.12245    -18.32365
        133        Derivative         0.00000      0.40588     -0.66825
        134        Derivative         0.00000      2.19938      0.59326
        135        Derivative         0.00000      2.25094      0.62953
        136        Derivative         0.00000     -0.04728     -0.03325
        137        Derivative         0.00000     -0.22929     -0.16128
        138        Derivative         0.00000     -0.38620     -0.27165
        139        Derivative         0.00000     -2.23267      0.02937
        140        Derivative         0.00000     -2.23267      0.02937
        141        Derivative         0.00000     -2.23267      0.02937
        142        Derivative         0.00000      0.00001      0.00001
        143        Derivative         0.00000      0.00001      0.00001
        144        Derivative         0.00000      0.00001      0.00001
        145        Derivative         0.00000     -2.67824     -0.03890
        146        Derivative         0.00000     -2.67824     -0.03890
        147        Derivative         0.00000     -2.67824     -0.03890
        148        Derivative         0.00000      2.67824      0.03890
        149        Derivative         0.00000      2.67824      0.03890
        150        Derivative         0.00000      2.67824      0.03890

  Maximum range for interatomic potentials =         8.000000 Angstroms

  Taper potentials to zero over   8.0000 Angstroms using Voter m =  20.0000

  General interatomic potentials :

Atom  Types   Potential         A         B         C         D     Cutoffs(Ang)
  1     2                                                            Min    Max
Sb   c Te2  c Morse         0.245      2.43     3.05     0.00       0.000 12.000
Sb   c Te1  c Morse         0.325      1.63     3.23     0.00       0.000 12.000
Te1  c Te1  c Morse         0.135E-01 0.938     4.44     0.00       0.000 12.000
Te1  c Te2  c Morse         0.149E-01 0.562     4.69     0.00       0.000 12.000
Te2  c Te2  c Morse         0.487E-01  2.52     4.01     0.00       0.000 12.000

  Energy shifts for configurations :

      Configuration           Energy (eV)        Scale Factor
             1               -14.2882                 1.000
             2               -14.2882                 1.000
             3               -14.2882                 1.000
             4               -14.2882                 1.000
             5               -14.2882                 1.000
             6               -14.2882                 1.000
             7               -14.2882                 1.000
             8               -14.2882                 1.000
             9               -14.2882                 1.000
            10               -14.2882                 1.000
            11               -14.2882                 1.000
            12               -14.2882                 1.000
            13               -14.2882                 1.000
            14               -14.2882                 1.000
            15               -14.2882                 1.000
            16               -14.2882                 1.000
            17               -14.2882                 1.000
            18               -14.2882                 1.000
            19               -14.2882                 1.000
            20               -14.2882                 1.000
            21               -14.2882                 1.000
            22               -14.2882                 1.000
            23               -14.2882                 1.000
            24               -14.2882                 1.000
            25               -14.2882                 1.000
            26               -14.2882                 1.000
            27               -14.2882                 1.000
            28               -14.2882                 1.000
            29               -14.2882                 1.000
            30               -14.2882                 1.000
            31               -14.2882                 1.000
            32               -14.2882                 1.000
            33               -14.2882                 1.000
            34               -14.2882                 1.000
            35               -14.2882                 1.000
            36               -14.2882                 1.000
            37               -14.2882                 1.000
            38               -14.2882                 1.000
            39               -14.2882                 1.000
            40               -14.2882                 1.000
            41               -14.2882                 1.000
            42               -14.2882                 1.000
            43               -14.2882                 1.000
            44               -14.2882                 1.000
            45               -14.2882                 1.000
            46               -14.2882                 1.000
            47               -14.2882                 1.000
            48               -14.2882                 1.000
            49               -14.2882                 1.000
            50               -14.2882                 1.000
            51               -14.2882                 1.000
            52               -14.2882                 1.000
            53               -14.2882                 1.000
            54               -14.2882                 1.000
            55               -14.2882                 1.000
            56               -14.2882                 1.000
            57               -14.2882                 1.000
            58               -14.2882                 1.000
            59               -14.2882                 1.000
            60               -14.2882                 1.000
[...]
           119               -14.2882                 1.000
           120               -14.2882                 1.000
           121               -14.2882                 1.000
           122               -14.2882                 1.000
           123               -14.2882                 1.000
           124               -14.2882                 1.000
           125               -14.2882                 1.000
           126               -14.2882                 1.000
           127               -14.2882                 1.000
           128               -14.2882                 1.000
           129               -14.2882                 1.000
           130               -14.2882                 1.000
           131               -14.2882                 1.000
           132               -14.2882                 1.000
           133               -14.2882                 1.000

  Total time to end of fitting =     544.7620 seconds

*  Output for configuration   1                                                *

!! WARNING : No variables to optimise - single point performed

  Components of energy :

  Interatomic potentials     =          -2.21165136 eV
  Monopole - monopole (real) =           0.00000000 eV
  Monopole - monopole (recip)=           0.00000000 eV
  Monopole - monopole (total)=           0.00000000 eV
  Energy shift               =         -14.28819251 eV
  Total lattice energy       =         -16.49984387 eV
  Total lattice energy       =           -1591.9827 kJ/(mole unit cells)

  Elastic Constant Matrix: (Units=GPa)

  Indices      1         2         3         4         5         6
       1   -315.2643 -255.1089 -146.9652   -0.0000  -15.8879    0.0000
       2   -255.1089 -315.2643 -146.9652   -0.0000   15.8879    0.0000
       3   -146.9652 -146.9652 -113.6846   -0.0000   -0.0000    0.0000
       4     -0.0000   -0.0000   -0.0000  -21.5404   -0.0000   15.8879
       5    -15.8879   15.8879   -0.0000   -0.0000  -21.5404    0.0000
       6      0.0000    0.0000    0.0000   15.8879    0.0000  -30.0777

  Elastic Compliance Matrix: (Units=1/GPa)

[...]

 Mechanical properties :

  Convention :                    Reuss         Voigt         Hill
  Bulk  Modulus (GPa)     =    -103.13007    -204.69908    -153.91458
  Shear Modulus (GPa)     =     -15.73337     -27.64329     -21.68833
  Velocity S-wave (km/s)  =      -5.07376      -6.72534      -5.95707
  Velocity P-wave (km/s)  =      14.25014      19.88057      17.29601
  Compressibility (1/GPa) =   -0.00969649
  Stress axis :                     x             y             z
  Youngs Moduli (GPa)     =     -61.56348     -61.56348     -37.94904
  Poissons Ratio (x)      =                     0.67666       0.25766
  Poissons Ratio (y)      =       0.67666                     0.25766
  Poissons Ratio (z)      =       0.41800       0.41800

  Piezoelectric Strain Matrix: (Units=C/m**2)

  Indices      1         2         3         4         5         6
       x    -0.00000  -0.00000  -0.00000  -0.00000  -0.00000  -0.00000
       y    -0.00000  -0.00000  -0.00000  -0.00000  -0.00000  -0.00000
       z    -0.00000  -0.00000  -0.00000  -0.00000  -0.00000  -0.00000

  Piezoelectric Stress Matrix: (Units=10**-11 C/N)

[...]

  Static dielectric constant tensor :

              x         y         z
       x     1.00000   0.00000   0.00000
       y     0.00000   1.00000   0.00000
       z     0.00000   0.00000   1.00000

  Static refractive indices :

    1 =    1.00000      2 =    1.00000      3 =    1.00000

  Time to end of properties =     544.7660 seconds

[...]

!! WARNING : No variables to optimise - single point performed

[...]

  Time to end of properties =     544.9541 seconds

*  Output for configuration 133                                                *

[...]

  Number of variables =     18

  Maximum number of calculations  =          1000
  Maximum Hessian update interval =            10
  Maximum step size               =   1.000000000
  Maximum parameter tolerance     =   0.000010000
  Maximum function  tolerance     =   0.000010000
  Maximum gradient  tolerance     =   0.001000000
  Maximum gradient  component     =   0.010000000

  Symmetry not applied to optimisation

  Cell parameters to be optimised using strains

  Newton-Raphson optimiser to be used

  BFGS hessian update to be used

  Dumpfile to be written after every cycle

  Start of bulk optimisation :

  ** Hessian calculated **
  ** Hessian calculated **

  **** Optimisation achieved ****

  Final energy =     -18.51423322 eV
  Final Gnorm  =       0.00011951

  Components of energy :

  Interatomic potentials     =          -4.22604071 eV
  Monopole - monopole (real) =           0.00000000 eV
  Monopole - monopole (recip)=           0.00000000 eV
  Monopole - monopole (total)=           0.00000000 eV
  Energy shift               =         -14.28819251 eV
  Total lattice energy       =         -18.51423322 eV
  Total lattice energy       =           -1786.3405 kJ/(mole unit cells)

  Final fractional coordinates of atoms :

   No.  Atomic        x           y          z          Radius
        Label       (Frac)      (Frac)     (Frac)       (Angs)
     1  Sb    c     0.396797    0.396797    0.396797    0.000000
     2  Sb    c     0.602845    0.602854    0.602840    0.000000
     3  Te1   c     0.999819    0.999825    0.999819    0.000000
     4  Te2   c     0.786970    0.786967    0.786957    0.000000
     5  Te2   c     0.212673    0.212686    0.212675    0.000000

  Final Cartesian lattice vectors (Angstroms) :

       12.049408    0.472848    0.280819
       11.253768    4.331647    0.280880
       11.253797    2.320288    3.668758

  Final cell parameters and derivatives :

       a           12.061952 Angstrom     dE/de1(xx)     0.000196 eV/strain
       b           12.061897 Angstrom     dE/de2(yy)     0.000425 eV/strain
       c           12.061984 Angstrom     dE/de3(zz)     0.000446 eV/strain
       alpha       18.799536 Degrees      dE/de4(yz)     0.000430 eV/strain
       beta        18.800030 Degrees      dE/de5(xz)     0.000080 eV/strain
       gamma       18.799615 Degrees      dE/de6(xy)     0.000131 eV/strain

  Primitive cell volume =           159.249028 Angs**3

  Density of cell =      6.530728 g/cm**3

  Non-primitive cell volume =           159.249028 Angs**3

  Final internal derivatives :

   No.  Atomic          x             y             z           Radius
        Label          (eV)          (eV)          (eV)        (eV/Angs)
      1 Sb    c       0.000000      0.000000      0.000000      0.000000
      2 Sb    c      -0.000956     -0.000941     -0.001042      0.000000
      3 Te1   c      -0.000554     -0.000529     -0.000509      0.000000
      4 Te2   c      -0.000071     -0.000009     -0.000187      0.000000
      5 Te2   c       0.000296      0.000252      0.000285      0.000000
  Maximum abs         0.000956      0.000941      0.001042      0.000000

  Elastic Constant Matrix: (Units=GPa)

[...]

  Elastic Compliance Matrix: (Units=1/GPa)

  Indices      1         2         3         4         5         6
       1    0.024654 -0.007100 -0.014519  0.013600 -0.003603 -0.006070
       2   -0.007100  0.041943 -0.022969 -0.019697 -0.025831 -0.001351
       3   -0.014519 -0.022969  0.049622  0.005640  0.027173  0.003609
       4    0.013600 -0.019697  0.005640  0.104960 -0.009188 -0.061485
       5   -0.003603 -0.025831  0.027173 -0.009188  0.062208  0.025194
       6   -0.006070 -0.001351  0.003609 -0.061485  0.025194  0.089729

 Mechanical properties :

  Convention :                    Reuss         Voigt         Hill
  Bulk  Modulus (GPa)     =      36.97842      39.48191      38.23017
  Shear Modulus (GPa)     =      10.60878      19.60961      15.10920
  Velocity S-wave (km/s)  =       4.03044       5.47966       4.80994
  Velocity P-wave (km/s)  =       8.84768      10.02453       9.45443
  Compressibility (1/GPa) =    0.02704280
  Stress axis :                     x             y             z
  Youngs Moduli (GPa)     =      40.56084      23.84170      20.15240
  Poissons Ratio (x)      =                     0.16928       0.29260
  Poissons Ratio (y)      =       0.28800                     0.46287
  Poissons Ratio (z)      =       0.58892       0.54761

  Piezoelectric Strain Matrix: (Units=C/m**2)

[...]

  Piezoelectric Stress Matrix: (Units=10**-11 C/N)

  Indices      1         2         3         4         5         6
       x     0.00000   0.00000   0.00000   0.00000   0.00000   0.00000
       y     0.00000   0.00000   0.00000   0.00000   0.00000   0.00000
       z     0.00000   0.00000   0.00000   0.00000   0.00000   0.00000

  Static dielectric constant tensor :

              x         y         z
       x     1.00000   0.00000   0.00000
       y     0.00000   1.00000   0.00000
       z     0.00000   0.00000   1.00000

  Static refractive indices :

    1 =    1.00000      2 =    1.00000      3 =    1.00000

  Time to end of optimisation =     545.1541 seconds

  Timing analysis for GULP :

  Task / Subroutine                                          Time (Seconds)
  Calculation of real space energy and derivatives              526.0489
  Sum of squares for fitting                                     12.8048
  Global summation overhead                                       0.4240

  Dump file written as sb2te3.res

  **** GULP has completed with 132 warnings - beware! ****

  Job Finished at 14:58.39 22nd June       2010