  Job Started  at 21:46.14 20th June       2010

  Number of CPUs =     1

  Total number of configurations input = 106

*  Input for Configuration =   1                                               *

  Formula = Sb2Te3

  Number of irreducible atoms/shells =       5

  Total number atoms/shells =       5

  Dimensionality = 3               :  Bulk

  Cartesian lattice vectors (Angstroms) :

       -2.504286    0.000000   10.443767
        1.252143   -2.168775   10.443767
        1.252143    2.168775   10.443767

  Cell parameters (Angstroms/Degrees):

  a =      10.7398    alpha =  23.3006
  b =      10.7398    beta  =  23.3006
  c =      10.7398    gamma =  23.3006

  Initial cell volume =         170.167643 Angs**3

  Temperature of configuration =  0.000     K

  Pressure of configuration =         0.000 GPa

  Fractional coordinates of asymmetric unit :

   No.  Atomic       x           y          z         Charge      Occupancy
        Label      (Frac)      (Frac)     (Frac)        (e)         (Frac)
      1 Sb    c    0.369021    0.369021    0.369021      0.0000    1.000000
      2 Sb    c    0.603203    0.603203    0.603203      0.0000    1.000000
      3 Te1   c    0.000000    0.000000    0.000000     -0.0000    1.000000
      4 Te2   c    0.784571    0.784571    0.784571     -0.0000    1.000000
      5 Te2   c    0.215429    0.215429    0.215429     -0.0000    1.000000

[...]

*  Input for Configuration = 106                                               *

  Formula = Sb2Te3

  Number of irreducible atoms/shells =       5

  Total number atoms/shells =       5

  Dimensionality = 3               :  Bulk

  Cartesian lattice vectors (Angstroms) :

[...]

  Cell parameters (Angstroms/Degrees):

  a =      10.7398    alpha =  23.3000
  b =      10.7398    beta  =  23.3000
  c =      10.7398    gamma =  23.3000

  Initial cell volume =         170.158355 Angs**3

  Temperature of configuration =  0.000     K

  Pressure of configuration =         0.000 GPa

  Fractional coordinates of asymmetric unit :

   No.  Atomic       x           y          z         Charge      Occupancy
        Label      (Frac)      (Frac)     (Frac)        (e)         (Frac)
      1 Sb    c    0.396797    0.396797    0.396797      0.0000    1.000000
      2 Sb    c    0.603203    0.603203    0.603203      0.0000    1.000000
      3 Te1   c    0.000000    0.000000    0.000000     -0.0000    1.000000
      4 Te2   c    0.784571    0.784571    0.784571     -0.0000    1.000000
      5 Te2   c    0.215429    0.215429    0.215429     -0.0000    1.000000

*  General input information                                                   *

  Species output for all configurations :

  Species    Type    Atomic    Atomic    Charge       Radii (Angs)     Library
                     Number     Mass       (e)     Cova   Ionic  VDW   Symbol
    Sb       Core       51     121.75     0.0000   1.460  0.000  2.170
    Te1      Core       52     127.60    -0.0000   1.470  0.000  2.200
    Te2      Core       52     127.60    -0.0000   1.470  0.000  2.200

  Lattice summation method               =    Ewald
  Accuracy factor for lattice sums       =    8.000

  Time limit = Infinity

  Maximum range for interatomic potentials =         8.000000 Angstroms

  Taper potentials to zero over   8.0000 Angstroms using Voter m =  20.0000

  General interatomic potentials :

Atom  Types   Potential         A         B         C         D     Cutoffs(Ang)
  1     2                                                            Min    Max
Sb   c Te2  c Morse         0.100      3.65     3.03     0.00       0.000 12.000
Sb   c Te1  c Morse         0.100      1.18     3.20     0.00       0.000 12.000
Sb   c Sb   c Morse         0.500E-01  1.00     4.34     0.00       0.000 12.000
Te1  c Te1  c Morse         0.730E-01  1.07     4.34     0.00       0.000 12.000
Te1  c Te2  c Morse         0.470E-01  1.07     4.47     0.00       0.000 12.000
Te2  c Te2  c Morse         0.740E-01  2.72     3.93     0.00       0.000 12.000
Te2  c Te2  c Morse         0.500E-01  1.00     4.34     0.00       0.000 12.000

  Energy shifts for configurations :

      Configuration           Energy (eV)        Scale Factor
             1               -6.78000                 1.000
             2               -6.78000                 1.000
             3               -6.78000                 1.000
             4               -6.78000                 1.000
             5               -6.78000                 1.000
             6               -6.78000                 1.000
             7               -6.78000                 1.000
             8               -6.78000                 1.000
             9               -6.78000                 1.000
            10               -6.78000                 1.000
            11               -6.78000                 1.000
            12               -6.78000                 1.000
            13               -6.78000                 1.000
            14               -6.78000                 1.000
            15               -6.78000                 1.000
            16               -6.78000                 1.000
            17               -6.78000                 1.000
            18               -6.78000                 1.000
            19               -6.78000                 1.000
            20               -6.78000                 1.000
            21               -6.78000                 1.000
            22               -6.78000                 1.000
            23               -6.78000                 1.000
            24               -6.78000                 1.000
            25               -6.78000                 1.000
            26               -6.78000                 1.000
            27               -6.78000                 1.000
            28               -6.78000                 1.000
            29               -6.78000                 1.000
            30               -6.78000                 1.000
            31               -6.78000                 1.000
            32               -6.78000                 1.000
            33               -6.78000                 1.000
            34               -6.78000                 1.000
            35               -6.78000                 1.000
            36               -6.78000                 1.000
            37               -6.78000                 1.000
            38               -6.78000                 1.000
            39               -6.78000                 1.000
            40               -6.78000                 1.000
            41               -6.78000                 1.000
            42               -6.78000                 1.000
            43               -6.78000                 1.000
            44               -6.78000                 1.000
            45               -6.78000                 1.000
            46               -6.78000                 1.000
            47               -6.78000                 1.000
            48               -6.78000                 1.000
            49               -6.78000                 1.000
            50               -6.78000                 1.000
            51               -6.78000                 1.000
            52               -6.78000                 1.000
            53               -6.78000                 1.000
            54               -6.78000                 1.000
            55               -6.78000                 1.000
            56               -6.78000                 1.000
            57               -6.78000                 1.000
            58               -6.78000                 1.000
            59               -6.78000                 1.000
            60               -6.78000                 1.000
[...]
            92               -6.78000                 1.000
            93               -6.78000                 1.000
            94               -6.78000                 1.000
            95               -6.78000                 1.000
            96               -6.78000                 1.000
            97               -6.78000                 1.000
            98               -6.78000                 1.000
            99               -6.78000                 1.000
           100               -6.78000                 1.000
           101               -6.78000                 1.000
           102               -6.78000                 1.000
           103               -6.78000                 1.000
           104               -6.78000                 1.000
           105               -6.78000                 1.000
           106               -6.78000                 1.000

  Number of variables   =   22
  Number of observables =  111

   Observable no.  Type           Observable    Weight       Reference  Confign
          1        Energy          -16.066600        0.0000                1
          2        Energy          -16.584500        0.0000                2
          3        Energy          -17.060200        0.0000                3
          4        Energy          -17.480900        0.0000                4
          5        Energy          -17.831400        0.1000                5
          6        Energy          -18.095000        0.5000                6
          7        Energy          -18.258200        0.5000                7
          8        Energy          -18.313000        1.0000                8
          9        Energy          -18.257900        0.5000                9
         10        Energy          -18.096800        0.2000               10
         11        Energy          -17.838700        0.1000               11
         12        Energy          -17.496800        0.0000               12
         13        Energy          -17.088900        0.0000               13
         14        Energy          -16.635400        0.0000               14
         15        Energy          -16.162800        0.0000               15
         16        Energy          -14.700000        0.0000               16
         17        Energy          -15.230000        0.0000               17
         18        Energy          -15.880000        0.0000               18
         19        Energy          -16.600000        0.0000               19
         20        Energy          -17.270000        0.1000               20
         21        Energy          -17.830000        0.2000               21
         22        Energy          -18.190000        0.5000               22
         23        Energy          -18.310000        1.0000               23
         24        Energy          -18.190000        0.5000               24
         25        Energy          -17.820000        0.2000               25
         26        Energy          -17.250000        0.1000               26
         27        Energy          -16.540000        0.0000               27
         28        Energy          -15.740000        0.0000               28
         29        Energy          -14.900000        0.0000               29
         30        Energy          -14.070000        0.0000               30
[...]
         45        Energy           -11.87000     -6.79776    -17.67859
         46        Energy           -13.40162      1.54481     -8.84071
         47        Energy           -14.06057      0.21377     -9.63929
         48        Energy           -14.95910     -2.50710    -11.81765
         49        Energy           -15.95336     -5.50629    -14.34542
         50        Energy           -16.89778     -7.84986    -16.34942
         51        Energy           -17.66075     -9.23497    -17.52760
         52        Energy           -18.14930     -9.84583    -18.02866
         53        Energy           -18.31000     -9.98592    -18.13713
         54        Energy           -18.16658     -9.80875    -18.06824
         55        Energy           -17.80969     -9.15807    -17.91745
         56        Energy           -17.40109     -7.36921    -17.68296
         57        Energy           -17.08769     -2.88492    -17.29112
         58        Energy           -16.85947      7.35335    -16.60547
         59        Energy           -16.57300     28.49983    -15.43343
         60        Energy           -16.10155     67.64096    -13.56018
[...]
         91        Energy           -17.68000     -7.31768    -17.70490
         92        Energy           -16.95000     -8.19665    -16.51878
         93        Energy           -16.99000     -8.66072    -16.93944
         94        Energy           -16.42000     -8.58763    -16.88042
         95        Energy           -17.33000     -9.49464    -17.58185
         96        Energy           -17.91000     -9.90931    -17.94403
         97        Energy           -18.23000    -10.03140    -18.10107
         98        Energy           -18.32000     -9.98592    -18.13713
         99        Energy           -18.24000     -9.84923    -18.10476
        100        Energy           -18.01000     -9.66809    -18.03629
        101        Energy           -17.66000     -9.46963    -17.95064
        102        Energy           -17.23000     -9.26867    -17.85913
        103        Energy           -16.72000     -9.07256    -17.76771
        104        Energy           -16.16000     -8.88591    -17.67980
        105        Energy           -18.31000     -9.98604    -18.13714
        106        Derivative         0.00000      0.75214     -0.11135
        107        Derivative         0.00000      2.11922      0.17356
        108        Derivative         0.00000      2.15852      0.18175
        109        Derivative         0.00000     -0.03604     -0.00751
        110        Derivative         0.00000     -0.17478     -0.03643
        111        Derivative         0.00000     -0.29438     -0.06135

  Maximum range for interatomic potentials =         8.000000 Angstroms

  Taper potentials to zero over   8.0000 Angstroms using Voter m =  20.0000

  General interatomic potentials :

Atom  Types   Potential         A         B         C         D     Cutoffs(Ang)
  1     2                                                            Min    Max
Sb   c Te2  c Morse         0.846E-01  3.64     3.04     0.00       0.000 12.000
Sb   c Te1  c Morse         0.513E-01  1.27     3.23     0.00       0.000 12.000
Sb   c Sb   c Morse         0.232E-01  1.02     4.36     0.00       0.000 12.000
Te1  c Te1  c Morse         0.321E-01  1.06     4.39     0.00       0.000 12.000
Te1  c Te2  c Morse         -.286E-01 0.916E-02 4.54     0.00       0.000 12.000
Te2  c Te2  c Morse         0.167E-01  2.31     3.79     0.00       0.000 12.000
Te2  c Te2  c Morse         0.217E-01 0.980     4.51     0.00       0.000 12.000

  Energy shifts for configurations :

      Configuration           Energy (eV)        Scale Factor
             1               -16.7165                 1.000
             2               -16.7165                 1.000
             3               -16.7165                 1.000
             4               -16.7165                 1.000
             5               -16.7165                 1.000
             6               -16.7165                 1.000
             7               -16.7165                 1.000
             8               -16.7165                 1.000
             9               -16.7165                 1.000
            10               -16.7165                 1.000
            11               -16.7165                 1.000
            12               -16.7165                 1.000
            13               -16.7165                 1.000
            14               -16.7165                 1.000
            15               -16.7165                 1.000
            16               -16.7165                 1.000
            17               -16.7165                 1.000
            18               -16.7165                 1.000
            19               -16.7165                 1.000
            20               -16.7165                 1.000
            21               -16.7165                 1.000
            22               -16.7165                 1.000
            23               -16.7165                 1.000
            24               -16.7165                 1.000
            25               -16.7165                 1.000
            26               -16.7165                 1.000
            27               -16.7165                 1.000
            28               -16.7165                 1.000
            29               -16.7165                 1.000
            30               -16.7165                 1.000
            31               -16.7165                 1.000
            32               -16.7165                 1.000
            33               -16.7165                 1.000
            34               -16.7165                 1.000
            35               -16.7165                 1.000
            36               -16.7165                 1.000
            37               -16.7165                 1.000
            38               -16.7165                 1.000
            39               -16.7165                 1.000
            40               -16.7165                 1.000
            41               -16.7165                 1.000
            42               -16.7165                 1.000
            43               -16.7165                 1.000
            44               -16.7165                 1.000
            45               -16.7165                 1.000
            46               -16.7165                 1.000
            47               -16.7165                 1.000
            48               -16.7165                 1.000
            49               -16.7165                 1.000
            50               -16.7165                 1.000
            51               -16.7165                 1.000
            52               -16.7165                 1.000
            53               -16.7165                 1.000
            54               -16.7165                 1.000
            55               -16.7165                 1.000
            56               -16.7165                 1.000
            57               -16.7165                 1.000
            58               -16.7165                 1.000
            59               -16.7165                 1.000
            60               -16.7165                 1.000
[...]
            92               -16.7165                 1.000
            93               -16.7165                 1.000
            94               -16.7165                 1.000
            95               -16.7165                 1.000
            96               -16.7165                 1.000
            97               -16.7165                 1.000
            98               -16.7165                 1.000
            99               -16.7165                 1.000
           100               -16.7165                 1.000
           101               -16.7165                 1.000
           102               -16.7165                 1.000
           103               -16.7165                 1.000
           104               -16.7165                 1.000
           105               -16.7165                 1.000
           106               -16.7165                 1.000

  Total time to end of fitting =     553.2066 seconds

*  Output for configuration   1                                                *

!! WARNING : No variables to optimise - single point performed

  Components of energy :

  Interatomic potentials     =          -1.12947441 eV
  Monopole - monopole (real) =           0.00000000 eV
  Monopole - monopole (recip)=           0.00000000 eV
  Monopole - monopole (total)=           0.00000000 eV
  Energy shift               =         -16.71653650 eV
  Total lattice energy       =         -17.84601091 eV
  Total lattice energy       =           -1721.8673 kJ/(mole unit cells)

  Elastic Constant Matrix: (Units=GPa)

  Indices      1         2         3         4         5         6
       1     25.5603   11.7179   23.6348   -0.0000    9.4523    0.0000
       2     11.7179   25.5603   23.6348   -0.0000   -9.4523    0.0000
       3     23.6348   23.6348   29.3187   -0.0000   -0.0000    0.0000
       4     -0.0000   -0.0000   -0.0000   14.7998   -0.0000   -9.4523
       5      9.4523   -9.4523   -0.0000   -0.0000   14.7998    0.0000
       6      0.0000    0.0000    0.0000   -9.4523    0.0000    6.9212

  Elastic Compliance Matrix: (Units=1/GPa)

[...]

 Mechanical properties :

  Convention :                    Reuss         Voigt         Hill
  Bulk  Modulus (GPa)     =     -17.62147      22.04601       2.21227
  Shear Modulus (GPa)     =      -2.34327       8.73428       3.19551
  Velocity S-wave (km/s)  =      -1.95808       3.78036       2.28659
  Velocity P-wave (km/s)  =       5.82619       7.42473       3.25440
  Compressibility (1/GPa) =   -0.05674896
  Stress axis :                     x             y             z
  Youngs Moduli (GPa)     =      -3.10915      -3.10915      -0.65068
  Poissons Ratio (x)      =                    -2.75806       0.63401
  Poissons Ratio (y)      =      -2.75806                     0.63401
  Poissons Ratio (z)      =       3.02950       3.02950

  Piezoelectric Strain Matrix: (Units=C/m**2)

  Indices      1         2         3         4         5         6
       x    -0.00000  -0.00000  -0.00000  -0.00000  -0.00000  -0.00000
       y    -0.00000  -0.00000  -0.00000  -0.00000  -0.00000  -0.00000
       z    -0.00000  -0.00000  -0.00000  -0.00000  -0.00000  -0.00000

  Piezoelectric Stress Matrix: (Units=10**-11 C/N)

[...]

  Static dielectric constant tensor :

              x         y         z
       x     1.00000   0.00000   0.00000
       y     0.00000   1.00000   0.00000
       z     0.00000   0.00000   1.00000

  Static refractive indices :

    1 =    1.00000      2 =    1.00000      3 =    1.00000

  Time to end of properties =     553.2106 seconds

[...]

!! WARNING : No variables to optimise - single point performed

[...]

  Time to end of properties =     553.3506 seconds

*  Output for configuration 106                                                *

[...]

  Number of variables =      6

  Maximum number of calculations  =          1000
  Maximum Hessian update interval =            10
  Maximum step size               =   1.000000000
  Maximum parameter tolerance     =   0.000010000
  Maximum function  tolerance     =   0.000010000
  Maximum gradient  tolerance     =   0.001000000
  Maximum gradient  component     =   0.010000000

  Symmetry not applied to optimisation

  Cell parameters to be optimised using strains

  Newton-Raphson optimiser to be used

  BFGS hessian update to be used

  Dumpfile to be written after every cycle

  Start of bulk optimisation :

  ** Hessian calculated **

  **** Optimisation achieved ****

  Final energy =     -18.14812403 eV
  Final Gnorm  =       0.00000339

  Components of energy :

  Interatomic potentials     =          -1.43158753 eV
  Monopole - monopole (real) =           0.00000000 eV
  Monopole - monopole (recip)=           0.00000000 eV
  Monopole - monopole (total)=           0.00000000 eV
  Energy shift               =         -16.71653650 eV
  Total lattice energy       =         -18.14812403 eV
  Total lattice energy       =           -1751.0165 kJ/(mole unit cells)

  Final fractional coordinates of atoms :

   No.  Atomic        x           y          z          Radius
        Label       (Frac)      (Frac)     (Frac)       (Angs)
     1  Sb    c     0.396797    0.396797    0.396797    0.000000
     2  Sb    c     0.603203    0.603203    0.603203    0.000000
     3  Te1   c     0.000000    0.000000    0.000000    0.000000
     4  Te2   c     0.784571    0.784571    0.784571    0.000000
     5  Te2   c     0.215429    0.215429    0.215429    0.000000

  Final Cartesian lattice vectors (Angstroms) :

       11.372021    0.200058    0.118777
       10.523724    4.314409    0.118777
       10.523724    2.169783    3.730989

  Final cell parameters and derivatives :

       a           11.374401 Angstrom     dE/de1(xx)    -0.000020 eV/strain
       b           11.374401 Angstrom     dE/de2(yy)    -0.000003 eV/strain
       c           11.374401 Angstrom     dE/de3(zz)    -0.000002 eV/strain
       alpha       21.283127 Degrees      dE/de4(yz)    -0.000000 eV/strain
       beta        21.283127 Degrees      dE/de5(xz)    -0.000002 eV/strain
       gamma       21.283127 Degrees      dE/de6(xy)    -0.000004 eV/strain

  Primitive cell volume =           169.839060 Angs**3

  Density of cell =      6.123516 g/cm**3

  Non-primitive cell volume =           169.839060 Angs**3

  Final internal derivatives :

   No.  Atomic          x             y             z           Radius
        Label          (eV)          (eV)          (eV)        (eV/Angs)
      1 Sb    c       0.000000      0.000000      0.000000      0.000000
      2 Sb    c       0.000000      0.000000      0.000000      0.000000
      3 Te1   c       0.000000      0.000000      0.000000      0.000000
      4 Te2   c       0.000000      0.000000      0.000000      0.000000
      5 Te2   c       0.000000      0.000000      0.000000      0.000000
  Maximum abs         0.000000      0.000000      0.000000      0.000000

  Elastic Constant Matrix: (Units=GPa)

[...]

  Elastic Compliance Matrix: (Units=1/GPa)

  Indices      1         2         3         4         5         6
       1    0.184029 -0.047650 -0.088466  0.074851 -0.022851 -0.038488
       2   -0.047650  0.216177 -0.113773 -0.112540 -0.159946  0.024643
       3   -0.088466 -0.113773  0.257189  0.037328  0.181048  0.010899
       4    0.074851 -0.112540  0.037328  0.507795 -0.011145 -0.339450
       5   -0.022851 -0.159946  0.181048 -0.011145  0.456039  0.145670
       6   -0.038488  0.024643  0.010899 -0.339450  0.145670  0.614905

 Mechanical properties :

  Convention :                    Reuss         Voigt         Hill
  Bulk  Modulus (GPa)     =       6.34441       6.35074       6.34758
  Shear Modulus (GPa)     =       1.79311       3.08860       2.44086
  Velocity S-wave (km/s)  =       1.71121       2.24585       1.99651
  Velocity P-wave (km/s)  =       3.77691       4.13475       3.95988
  Compressibility (1/GPa) =    0.15761908
  Stress axis :                     x             y             z
  Youngs Moduli (GPa)     =       5.43392       4.62585       3.88819
  Poissons Ratio (x)      =                     0.22042       0.34397
  Poissons Ratio (y)      =       0.25892                     0.44237
  Poissons Ratio (z)      =       0.48071       0.52630

  Piezoelectric Strain Matrix: (Units=C/m**2)

[...]

  Piezoelectric Stress Matrix: (Units=10**-11 C/N)

  Indices      1         2         3         4         5         6
       x     0.00000   0.00000   0.00000   0.00000   0.00000   0.00000
       y     0.00000   0.00000   0.00000   0.00000   0.00000   0.00000
       z     0.00000   0.00000   0.00000   0.00000   0.00000   0.00000

  Static dielectric constant tensor :

              x         y         z
       x     1.00000   0.00000   0.00000
       y     0.00000   1.00000   0.00000
       z     0.00000   0.00000   1.00000

  Static refractive indices :

    1 =    1.00000      2 =    1.00000      3 =    1.00000

  Time to end of optimisation =     553.4426 seconds

  Timing analysis for GULP :

  Task / Subroutine                                          Time (Seconds)
  Calculation of real space energy and derivatives              530.8371
  Sum of squares for fitting                                     16.7531
  Global summation overhead                                       0.4040

  Dump file written as sb2te3.res

  **** GULP has completed with 105 warnings - beware! ****

  Job Finished at 21:55.29 20th June       2010