  Job Started  at 12:13.37 21st June       2010

  Number of CPUs =     1

  Total number of configurations input =  13

*  Input for Configuration =   1                                               *

  Formula = Sb2Te3

  Number of irreducible atoms/shells =       5

  Total number atoms/shells =       5

  Dimensionality = 3               :  Bulk

  Cartesian lattice vectors (Angstroms) :

       -2.303943    0.000000    9.608266
        1.151972   -1.995273    9.608266
        1.151972    1.995273    9.608266

  Cell parameters (Angstroms/Degrees):

  a =       9.8806    alpha =  23.3006
  b =       9.8806    beta  =  23.3006
  c =       9.8806    gamma =  23.3006

  Initial cell volume =         132.507502 Angs**3

  Temperature of configuration =  0.000     K

  Pressure of configuration =         0.000 GPa

  Fractional coordinates of asymmetric unit :

   No.  Atomic       x           y          z         Charge      Occupancy
        Label      (Frac)      (Frac)     (Frac)        (e)         (Frac)
      1 Sb    c    0.396797    0.396797    0.396797      0.0000    1.000000
      2 Sb    c    0.603203    0.603203    0.603203      0.0000    1.000000
      3 Te1   c    0.000000    0.000000    0.000000     -0.0000    1.000000
      4 Te2   c    0.784571    0.784571    0.784571     -0.0000    1.000000
      5 Te2   c    0.215429    0.215429    0.215429     -0.0000    1.000000

[...]

*  Input for Configuration =  13                                               *

  Formula = Sb2Te3

  Number of irreducible atoms/shells =       5

  Total number atoms/shells =       5

  Dimensionality = 3               :  Bulk

  Cartesian lattice vectors (Angstroms) :

[...]

  Cell parameters (Angstroms/Degrees):

  a =      10.7398    alpha =  23.3000
  b =      10.7398    beta  =  23.3000
  c =      10.7398    gamma =  23.3000

  Initial cell volume =         170.158355 Angs**3

  Temperature of configuration =  0.000     K

  Pressure of configuration =         0.000 GPa

  Fractional coordinates of asymmetric unit :

   No.  Atomic       x           y          z         Charge      Occupancy
        Label      (Frac)      (Frac)     (Frac)        (e)         (Frac)
      1 Sb    c    0.396797    0.396797    0.396797      0.0000    1.000000
      2 Sb    c    0.603203    0.603203    0.603203      0.0000    1.000000
      3 Te1   c    0.000000    0.000000    0.000000     -0.0000    1.000000
      4 Te2   c    0.784571    0.784571    0.784571     -0.0000    1.000000
      5 Te2   c    0.215429    0.215429    0.215429     -0.0000    1.000000

*  General input information                                                   *

  Species output for all configurations :

  Species    Type    Atomic    Atomic    Charge       Radii (Angs)     Library
                     Number     Mass       (e)     Cova   Ionic  VDW   Symbol
    Sb       Core       51     121.75     0.0000   1.460  0.000  2.170
    Te1      Core       52     127.60    -0.0000   1.470  0.000  2.200
    Te2      Core       52     127.60    -0.0000   1.470  0.000  2.200

  Lattice summation method               =    Ewald
  Accuracy factor for lattice sums       =    8.000

  Time limit = Infinity

  Maximum range for interatomic potentials =         8.000000 Angstroms

  Taper potentials to zero over   8.0000 Angstroms using Voter m =  20.0000

  General interatomic potentials :

Atom  Types   Potential         A         B         C         D     Cutoffs(Ang)
  1     2                                                            Min    Max
Sb   c Te2  c Morse         0.110      4.32     3.02     0.00       0.000 12.000
Sb   c Te1  c Morse         0.720E-01  1.64     3.30     0.00       0.000 12.000
Sb   c Sb   c Morse         0.720E-01 0.940     4.29     0.00       0.000 12.000
Te1  c Te1  c Morse         0.650E-01  1.05     4.36     0.00       0.000 12.000
Te1  c Te2  c Morse         0.580E-01  1.01     4.34     0.00       0.000 12.000
Te2  c Te2  c Morse         0.680E-01  2.75     3.90     0.00       0.000 12.000
Te2  c Te2  c Morse         0.550E-01  1.12     4.30     0.00       0.000 12.000

  Energy shifts for configurations :

      Configuration           Energy (eV)        Scale Factor
             1               -12.0000                 1.000
             2               -12.0000                 1.000
             3               -12.0000                 1.000
             4               -12.0000                 1.000
             5               -12.0000                 1.000
             6               -12.0000                 1.000
             7               -12.0000                 1.000
             8               -12.0000                 1.000
             9               -12.0000                 1.000
            10               -12.0000                 1.000
            11               -12.0000                 1.000
            12               -12.0000                 1.000
            13               -12.0000                 1.000

  Number of variables   =   15
  Number of observables =   26

   Observable no.  Type           Observable    Weight       Reference  Confign
          1        Energy          -16.420000        0.2000                1
          2        Energy          -17.330000        0.2000                2
          3        Energy          -17.910000        0.2000                3
          4        Energy          -18.230000        0.5000                4
          5        Energy          -18.320000        0.5000                5
          6        Energy          -18.240000        0.5000                6
          7        Energy          -18.010000        0.2000                7
          8        Energy          -17.660000        0.2000                8
          9        Energy          -17.230000        0.2000                9
         10        Energy          -16.720000        0.2000               10
         11        Energy          -16.160000        0.2000               11
         12        Energy          -18.310000        0.1000               12
         13        Elastic Const    64.998000        0.1000    1  1       12
         14        Elastic Const    64.998000        0.1000    2  2       12
         15        Elastic Const    15.380460        0.2000    1  2       12
         16        Elastic Const    11.748970        0.2000    1  3       12
         17        Elastic Const    15.900000        0.2000    3  3       12
         18        Elastic Const    24.808830        0.2000    4  4       12
         19        Elastic Const    11.801930        0.2000    5  5       12
         20        Elastic Const    11.801930        0.2000    6  6       12
         21        Derivative        0.000000        1.0000    a          13
         22        Derivative        0.000000        1.0000    b          13
         23        Derivative        0.000000        1.0000    c          13
         24        Derivative        0.000000        1.0000    alpha      13
         25        Derivative        0.000000        1.0000    beta       13
         26        Derivative        0.000000        1.0000    gamma      13

  Variables :

     Parameter No.       Parameter Value          Parameter Type  Species
             1                -12.000000          Energy shift        0
             2                  0.110000          Morse  De
             3                  4.320000          Morse  a0
             4                  0.072000          Morse  De
             5                  1.640000          Morse  a0
             6                  0.072000          Morse  De
             7                  0.940000          Morse  a0
             8                  0.065000          Morse  De
             9                  1.050000          Morse  a0
            10                  0.058000          Morse  De
            11                  1.010000          Morse  a0
            12                  0.068000          Morse  De
            13                  2.750000          Morse  a0
            14                  0.055000          Morse  De
            15                  1.120000          Morse  a0

  Symmetry not used for fitting
  First derivatives of residuals to be used in fitting

  Maximum no. of cycles   =       5000
  Maximum step size       =  1000.0000
  Tolerance on parameters =  0.0000100
  Tolerance on function   =  0.0000100
  Tolerance on gradient   =  0.0001000
  Differencing interval   =  0.0001000

  Dumpfile to be written after every cycle

  Start of fitting :

  ** Hessian calculated **
  ** Hessian calculated **

  **** Fit completed successfully ****

  Final sum of squares =           260.559483

  Final gradient norm  =            58.995125

  Final values of parameters :

 Parameter No.    Parameter        Parameter      Parameter Type  Species
                  Original         Final
         1            -12.000000       -15.099847 Energy shift        0
         2              0.110000         0.090238 Morse  De
         3              4.320000         4.350884 Morse  a0
         4              0.072000         0.036324 Morse  De
         5              1.640000         2.195889 Morse  a0
         6              0.072000         0.101007 Morse  De
         7              0.940000         1.385537 Morse  a0
         8              0.065000         0.039992 Morse  De
         9              1.050000         0.744048 Morse  a0
        10              0.058000         0.075310 Morse  De
        11              1.010000         1.363249 Morse  a0
        12              0.068000         0.026105 Morse  De
        13              2.750000         3.438146 Morse  a0
        14              0.055000         0.081016 Morse  De
        15              1.120000         1.153728 Morse  a0

  Final values of numerical parameter gradients :

     Parameter No.       Parameter Gradient      Parameter Type  Species
             1                  0.628175          Energy shift        0
             2                 -2.358359          Morse  De
             3                 -3.337949          Morse  a0
             4                 11.154386          Morse  De
             5                 12.957144          Morse  a0
             6                  3.655259          Morse  De
             7                 20.468076          Morse  a0
             8                  1.130634          Morse  De
             9                  1.854930          Morse  a0
            10                -24.146432          Morse  De
            11                -34.978756          Morse  a0
            12                 -8.848471          Morse  De
            13                 -7.017354          Morse  a0
            14                  0.339147          Morse  De
            15                -28.280365          Morse  a0

  Final values of residuals :

   Observable no.  Type            Observable   Calculated    Residual  Error(%)
          1        Energy           -16.42000    -15.93364      0.04731    2.962
          2        Energy           -17.33000    -17.31546      0.00004    0.084
          3        Energy           -17.91000    -17.96043      0.00051   -0.282
          4        Energy           -18.23000    -18.18820      0.00087    0.229
          5        Energy           -18.32000    -18.18580      0.00900    0.733
          6        Energy           -18.24000    -18.06150      0.01593    0.979
          7        Energy           -18.01000    -17.87803      0.00348    0.733
          8        Energy           -17.66000    -17.67056      0.00002   -0.060
          9        Energy           -17.23000    -17.45818      0.01041   -1.324
         10        Energy           -16.72000    -17.25035      0.05626   -3.172
         11        Energy           -16.16000    -17.05251      0.15931   -5.523
         12        Energy           -18.31000    -18.18588      0.00154    0.678
         13        Elastic Const     64.99800     39.50902     64.96880  -39.215
         14        Elastic Const     64.99800     38.26185     71.48218  -41.134
         15        Elastic Const     15.38046     17.24365      0.69429   12.114
         16        Elastic Const     11.74897     22.23442     21.98892   89.246
         17        Elastic Const     15.90000     33.03046     58.69052  107.739
         18        Elastic Const     24.80883     15.13439     18.71898  -38.996
         19        Elastic Const     11.80193     20.67603     15.74992   75.192
         20        Elastic Const     11.80193     15.63980      2.94584   32.519
         21        Derivative         0.00000      0.99293      0.98592
         22        Derivative         0.00000      1.41142      1.99211
         23        Derivative         0.00000      1.42345      2.02621
         24        Derivative         0.00000     -0.01103      0.00012
         25        Derivative         0.00000     -0.05350      0.00286
         26        Derivative         0.00000     -0.09011      0.00812

  Comparison of initial and final observables :

   Observable no.  Type            Observable   Initial       Final
          1        Energy           -16.42000    -13.00040    -15.93364
          2        Energy           -17.33000    -14.42367    -17.31546
          3        Energy           -17.91000    -15.06386    -17.96043
          4        Energy           -18.23000    -15.26825    -18.18820
          5        Energy           -18.32000    -15.23916    -18.18580
          6        Energy           -18.24000    -15.09194    -18.06150
          7        Energy           -18.01000    -14.89217    -17.87803
          8        Energy           -17.66000    -14.67483    -17.67056
          9        Energy           -17.23000    -14.45742    -17.45818
         10        Energy           -16.72000    -14.24777    -17.25035
         11        Energy           -16.16000    -14.05040    -17.05251
         12        Energy           -18.31000    -15.23927    -18.18588
         13        Elastic Const     64.99800     34.26120     39.50902
         14        Elastic Const     64.99800     27.84868     38.26185
         15        Elastic Const     15.38046     15.52160     17.24365
         16        Elastic Const     11.74897     20.97476     22.23442
         17        Elastic Const     15.90000     21.93309     33.03046
         18        Elastic Const     24.80883     11.99563     15.13439
         19        Elastic Const     11.80193     19.64325     20.67603
         20        Elastic Const     11.80193     14.13186     15.63980
         21        Derivative         0.00000      1.01210      0.99293
         22        Derivative         0.00000      2.02919      1.41142
         23        Derivative         0.00000      2.05843      1.42345
         24        Derivative         0.00000     -0.02681     -0.01103
         25        Derivative         0.00000     -0.13003     -0.05350
         26        Derivative         0.00000     -0.21901     -0.09011

  Maximum range for interatomic potentials =         8.000000 Angstroms

  Taper potentials to zero over   8.0000 Angstroms using Voter m =  20.0000

  General interatomic potentials :

Atom  Types   Potential         A         B         C         D     Cutoffs(Ang)
  1     2                                                            Min    Max
Sb   c Te2  c Morse         0.902E-01  4.35     3.02     0.00       0.000 12.000
Sb   c Te1  c Morse         0.363E-01  2.20     3.30     0.00       0.000 12.000
Sb   c Sb   c Morse         0.101      1.39     4.29     0.00       0.000 12.000
Te1  c Te1  c Morse         0.400E-01 0.744     4.36     0.00       0.000 12.000
Te1  c Te2  c Morse         0.753E-01  1.36     4.34     0.00       0.000 12.000
Te2  c Te2  c Morse         0.261E-01  3.44     3.90     0.00       0.000 12.000
Te2  c Te2  c Morse         0.810E-01  1.15     4.30     0.00       0.000 12.000

  Energy shifts for configurations :

      Configuration           Energy (eV)        Scale Factor
             1               -15.0998                 1.000
             2               -15.0998                 1.000
             3               -15.0998                 1.000
             4               -15.0998                 1.000
             5               -15.0998                 1.000
             6               -15.0998                 1.000
             7               -15.0998                 1.000
             8               -15.0998                 1.000
             9               -15.0998                 1.000
            10               -15.0998                 1.000
            11               -15.0998                 1.000
            12               -15.0998                 1.000
            13               -15.0998                 1.000

  Total time to end of fitting =      34.4141 seconds

*  Output for configuration   1                                                *

!! WARNING : No variables to optimise - single point performed

  Components of energy :

  Interatomic potentials     =          -0.83379711 eV
  Monopole - monopole (real) =           0.00000000 eV
  Monopole - monopole (recip)=           0.00000000 eV
  Monopole - monopole (total)=           0.00000000 eV
  Energy shift               =         -15.09984703 eV
  Total lattice energy       =         -15.93364414 eV
  Total lattice energy       =           -1537.3531 kJ/(mole unit cells)

  Elastic Constant Matrix: (Units=GPa)

  Indices      1         2         3         4         5         6
       1    107.5878   72.3077  166.8313    0.0000   59.1248    0.0000
       2     72.3077  107.5878  166.8313   -0.0000  -59.1248   -0.0000
       3    166.8313  166.8313  230.3466    0.0000    0.0000    0.0000
       4      0.0000   -0.0000    0.0000  103.4439    0.0000  -59.1248
       5     59.1248  -59.1248    0.0000    0.0000  103.4439   -0.0000
       6      0.0000   -0.0000    0.0000  -59.1248   -0.0000   17.6401

  Elastic Compliance Matrix: (Units=1/GPa)

[...]

 Mechanical properties :

  Convention :                    Reuss         Voigt         Hill
  Bulk  Modulus (GPa)     =     532.12372     139.71808     335.92090
  Shear Modulus (GPa)     =     -24.52804      47.54235      11.50716
  Velocity S-wave (km/s)  =      -5.59027       7.78290       3.82900
  Velocity P-wave (km/s)  =      25.22516      16.08661      21.15523
  Compressibility (1/GPa) =    0.00187926
  Stress axis :                     x             y             z
  Youngs Moduli (GPa)     =     -42.42354     -42.42354     -79.08491
  Poissons Ratio (x)      =                     0.31313       0.92738
  Poissons Ratio (y)      =       0.31313                     0.92738
  Poissons Ratio (z)      =       0.49747       0.49747

  Piezoelectric Strain Matrix: (Units=C/m**2)

  Indices      1         2         3         4         5         6
       x    -0.00000  -0.00000  -0.00000  -0.00000  -0.00000  -0.00000
       y    -0.00000  -0.00000  -0.00000  -0.00000  -0.00000  -0.00000
       z    -0.00000  -0.00000  -0.00000  -0.00000  -0.00000  -0.00000

  Piezoelectric Stress Matrix: (Units=10**-11 C/N)

[...]

  Static dielectric constant tensor :

              x         y         z
       x     1.00000   0.00000   0.00000
       y     0.00000   1.00000   0.00000
       z     0.00000   0.00000   1.00000

  Static refractive indices :

    1 =    1.00000      2 =    1.00000      3 =    1.00000

  Time to end of properties =      34.4141 seconds

[...]

!! WARNING : No variables to optimise - single point performed

[...]

  Time to end of properties =      34.4342 seconds

*  Output for configuration  13                                                *

[...]

  Number of variables =      6

  Maximum number of calculations  =          1000
  Maximum Hessian update interval =            10
  Maximum step size               =   1.000000000
  Maximum parameter tolerance     =   0.000010000
  Maximum function  tolerance     =   0.000010000
  Maximum gradient  tolerance     =   0.001000000
  Maximum gradient  component     =   0.010000000

  Symmetry not applied to optimisation

  Cell parameters to be optimised using strains

  Newton-Raphson optimiser to be used

  BFGS hessian update to be used

  Dumpfile to be written after every cycle

  Start of bulk optimisation :

  ** Hessian calculated **

  **** Optimisation achieved ****

  Final energy =     -18.21228807 eV
  Final Gnorm  =       0.00004223

  Components of energy :

  Interatomic potentials     =          -3.11244104 eV
  Monopole - monopole (real) =           0.00000000 eV
  Monopole - monopole (recip)=           0.00000000 eV
  Monopole - monopole (total)=           0.00000000 eV
  Energy shift               =         -15.09984703 eV
  Total lattice energy       =         -18.21228807 eV
  Total lattice energy       =           -1757.2074 kJ/(mole unit cells)

  Final fractional coordinates of atoms :

   No.  Atomic        x           y          z          Radius
        Label       (Frac)      (Frac)     (Frac)       (Angs)
     1  Sb    c     0.396797    0.396797    0.396797    0.000000
     2  Sb    c     0.603203    0.603203    0.603203    0.000000
     3  Te1   c     0.000000    0.000000    0.000000    0.000000
     4  Te2   c     0.784571    0.784571    0.784571    0.000000
     5  Te2   c     0.215429    0.215429    0.215429    0.000000

  Final Cartesian lattice vectors (Angstroms) :

       10.804006    0.057221    0.033973
        9.945534    4.220921    0.033973
        9.945534    2.050571    3.689511

  Final cell parameters and derivatives :

       a           10.804211 Angstrom     dE/de1(xx)    -0.000211 eV/strain
       b           10.804211 Angstrom     dE/de2(yy)     0.000080 eV/strain
       c           10.804211 Angstrom     dE/de3(zz)     0.000088 eV/strain
       alpha       22.692981 Degrees      dE/de4(yz)    -0.000008 eV/strain
       beta        22.692981 Degrees      dE/de5(xz)    -0.000037 eV/strain
       gamma       22.692981 Degrees      dE/de6(xy)    -0.000063 eV/strain

  Primitive cell volume =           164.685912 Angs**3

  Density of cell =      6.315125 g/cm**3

  Non-primitive cell volume =           164.685912 Angs**3

  Final internal derivatives :

   No.  Atomic          x             y             z           Radius
        Label          (eV)          (eV)          (eV)        (eV/Angs)
      1 Sb    c       0.000000      0.000000      0.000000      0.000000
      2 Sb    c       0.000000      0.000000      0.000000      0.000000
      3 Te1   c       0.000000      0.000000      0.000000      0.000000
      4 Te2   c       0.000000      0.000000      0.000000      0.000000
      5 Te2   c       0.000000      0.000000      0.000000      0.000000
  Maximum abs         0.000000      0.000000      0.000000      0.000000

  Elastic Constant Matrix: (Units=GPa)

[...]

  Elastic Compliance Matrix: (Units=1/GPa)

  Indices      1         2         3         4         5         6
       1    0.040216 -0.012680 -0.020510  0.014359  0.000952  0.001604
       2   -0.012680  0.045230 -0.019615 -0.019937 -0.028004 -0.003763
       3   -0.020510 -0.019615  0.053230  0.005266  0.025540 -0.000385
       4    0.014359 -0.019937  0.005266  0.105216 -0.007532 -0.060022
       5    0.000952 -0.028004  0.025540 -0.007532  0.070237  0.027891
       6    0.001604 -0.003763 -0.000385 -0.060022  0.027891  0.100655

 Mechanical properties :

  Convention :                    Reuss         Voigt         Hill
  Bulk  Modulus (GPa)     =      30.24325      30.67791      30.46058
  Shear Modulus (GPa)     =       9.40881      16.37542      12.89211
  Velocity S-wave (km/s)  =       3.85990       5.09220       4.51826
  Velocity P-wave (km/s)  =       8.23136       9.11879       8.68642
  Compressibility (1/GPa) =    0.03306523
  Stress axis :                     x             y             z
  Youngs Moduli (GPa)     =      24.86551      22.10916      18.78637
  Poissons Ratio (x)      =                     0.28035       0.38531
  Poissons Ratio (y)      =       0.31530                     0.36850
  Poissons Ratio (z)      =       0.51000       0.43368

  Piezoelectric Strain Matrix: (Units=C/m**2)

[...]

  Piezoelectric Stress Matrix: (Units=10**-11 C/N)

  Indices      1         2         3         4         5         6
       x     0.00000   0.00000   0.00000   0.00000   0.00000   0.00000
       y     0.00000   0.00000   0.00000   0.00000   0.00000   0.00000
       z     0.00000   0.00000   0.00000   0.00000   0.00000   0.00000

  Static dielectric constant tensor :

              x         y         z
       x     1.00000   0.00000   0.00000
       y     0.00000   1.00000   0.00000
       z     0.00000   0.00000   1.00000

  Static refractive indices :

    1 =    1.00000      2 =    1.00000      3 =    1.00000

  Time to end of optimisation =      34.4542 seconds

  Timing analysis for GULP :

  Task / Subroutine                                          Time (Seconds)
  Calculation of real space energy and derivatives               32.8100
  Sum of squares for fitting                                      0.9961
  Global summation overhead                                       0.0240

  Dump file written as sb2te3.res

  **** GULP has completed with  12 warnings - beware! ****

  Job Finished at 12:14.11 21st June       2010