  Job Started  at 17:59.45 21st June       2010

  Number of CPUs =     1

  Total number of configurations input =  58

*  Input for Configuration =   1                                               *

  Formula = Sb2Te3

  Number of irreducible atoms/shells =       5

  Total number atoms/shells =       5

  Dimensionality = 3               :  Bulk

  Cartesian lattice vectors (Angstroms) :

       10.739800    0.000000    0.000000
        9.863930    4.248080    0.000000
        9.863930    2.033746    3.729619

  Cell parameters (Angstroms/Degrees):

  a =      10.7398    alpha =  23.3000
  b =      10.7398    beta  =  23.3000
  c =      10.7398    gamma =  23.3000

  Initial cell volume =         170.158355 Angs**3

  Temperature of configuration =  0.000     K

  Pressure of configuration =         0.000 GPa

  Fractional coordinates of asymmetric unit :

   No.  Atomic       x           y          z         Charge      Occupancy
        Label      (Frac)      (Frac)     (Frac)        (e)         (Frac)
      1 Sb    c    0.401797    0.396797    0.396797      0.1090    1.000000
      2 Sb    c    0.603203    0.603203    0.603203      0.1090    1.000000
      3 Te1   c    0.000000    0.000000    0.000000      0.1600    1.000000
      4 Te2   c    0.784571    0.784571    0.784571     -0.1890    1.000000
      5 Te2   c    0.215429    0.215429    0.215429     -0.1890    1.000000

[...]

*  Input for Configuration =  58                                               *

  Formula = Sb2Te3

  Number of irreducible atoms/shells =       5

  Total number atoms/shells =       5

  Dimensionality = 3               :  Bulk

  Cartesian lattice vectors (Angstroms) :

[...]

  Cell parameters (Angstroms/Degrees):

  a =      10.7398    alpha =  23.3000
  b =      10.7398    beta  =  23.3000
  c =      10.7398    gamma =  23.3000

  Initial cell volume =         170.158355 Angs**3

  Temperature of configuration =  0.000     K

  Pressure of configuration =         0.000 GPa

  Fractional coordinates of asymmetric unit :

   No.  Atomic       x           y          z         Charge      Occupancy
        Label      (Frac)      (Frac)     (Frac)        (e)         (Frac)
      1 Sb    c    0.396797    0.396797    0.396797      0.1090    1.000000
      2 Sb    c    0.603203    0.603203    0.603203      0.1090    1.000000
      3 Te1   c    0.000000    0.000000    0.000000      0.1600    1.000000
      4 Te2   c    0.784571    0.784571    0.784571     -0.1890    1.000000
      5 Te2   c    0.215429    0.215429    0.215429     -0.1890    1.000000

*  General input information                                                   *

  Species output for all configurations :

  Species    Type    Atomic    Atomic    Charge       Radii (Angs)     Library
                     Number     Mass       (e)     Cova   Ionic  VDW   Symbol
    Sb       Core       51     121.75     0.1090   1.460  0.000  2.170
    Te1      Core       52     127.60     0.1600   1.470  0.000  2.200
    Te2      Core       52     127.60    -0.1890   1.470  0.000  2.200

  Lattice summation method               =    Ewald
  Accuracy factor for lattice sums       =    8.000

  Time limit = Infinity

  Maximum range for interatomic potentials =         8.000000 Angstroms

  Taper potentials to zero over   8.0000 Angstroms using Voter m =  20.0000

  General interatomic potentials :

Atom  Types   Potential         A         B         C         D     Cutoffs(Ang)
  1     2                                                            Min    Max
Sb   c Te2  c Morse         0.110      4.32     3.04     0.00       0.000 12.000
Sb   c Te1  c Morse         0.900E-01  1.69     3.31     0.00       0.000 12.000
Sb   c Sb   c Morse         0.540E-01  1.03     4.34     0.00       0.000 12.000
Te1  c Te1  c Morse         0.500E-01  1.05     4.37     0.00       0.000 12.000
Te1  c Te2  c Morse         0.190E-01  1.01     4.52     0.00       0.000 12.000
Te2  c Te2  c Morse         0.540E-01  2.24     3.82     0.00       0.000 12.000
Te2  c Te2  c Morse         0.670E-01  1.12     4.30     0.00       0.000 12.000

  Energy shifts for configurations :

      Configuration           Energy (eV)        Scale Factor
             1               -12.0000                 1.000
             2               -12.0000                 1.000
             3               -12.0000                 1.000
             4               -12.0000                 1.000
             5               -12.0000                 1.000
             6               -12.0000                 1.000
             7               -12.0000                 1.000
             8               -12.0000                 1.000
             9               -12.0000                 1.000
            10               -12.0000                 1.000
            11               -12.0000                 1.000
            12               -12.0000                 1.000
            13               -12.0000                 1.000
            14               -12.0000                 1.000
            15               -12.0000                 1.000
            16               -12.0000                 1.000
            17               -12.0000                 1.000
            18               -12.0000                 1.000
            19               -12.0000                 1.000
            20               -12.0000                 1.000
            21               -12.0000                 1.000
            22               -12.0000                 1.000
            23               -12.0000                 1.000
            24               -12.0000                 1.000
            25               -12.0000                 1.000
            26               -12.0000                 1.000
            27               -12.0000                 1.000
            28               -12.0000                 1.000
            29               -12.0000                 1.000
            30               -12.0000                 1.000
            31               -12.0000                 1.000
            32               -12.0000                 1.000
            33               -12.0000                 1.000
            34               -12.0000                 1.000
            35               -12.0000                 1.000
            36               -12.0000                 1.000
            37               -12.0000                 1.000
            38               -12.0000                 1.000
            39               -12.0000                 1.000
            40               -12.0000                 1.000
            41               -12.0000                 1.000
            42               -12.0000                 1.000
            43               -12.0000                 1.000
            44               -12.0000                 1.000
            45               -12.0000                 1.000
            46               -12.0000                 1.000
            47               -12.0000                 1.000
            48               -12.0000                 1.000
            49               -12.0000                 1.000
            50               -12.0000                 1.000
            51               -12.0000                 1.000
            52               -12.0000                 1.000
            53               -12.0000                 1.000
            54               -12.0000                 1.000
            55               -12.0000                 1.000
            56               -12.0000                 1.000
            57               -12.0000                 1.000
            58               -12.0000                 1.000

  Number of variables   =   24
  Number of observables =   63

   Observable no.  Type           Observable    Weight       Reference  Confign
          1        Energy          -18.310000        0.5000                1
          2        Energy          -18.280000        0.5000                2
          3        Energy          -18.230000        0.5000                3
          4        Energy          -18.160000        0.5000                4
          5        Energy          -18.070000        0.5000                5
          6        Energy          -18.310000        0.5000                6
          7        Energy          -18.280000        0.5000                7
          8        Energy          -18.230000        0.5000                8
          9        Energy          -18.160000        0.5000                9
         10        Energy          -18.070000        0.5000               10
         11        Energy          -18.310000        0.5000               11
         12        Energy          -18.280000        0.5000               12
         13        Energy          -18.230000        0.5000               13
         14        Energy          -18.160000        0.5000               14
         15        Energy          -18.070000        0.5000               15
         16        Energy          -18.310000        0.5000               16
         17        Energy          -18.300000        0.5000               17
         18        Energy          -18.260000        0.5000               18
         19        Energy          -18.220000        0.5000               19
         20        Energy          -18.160000        0.5000               20
         21        Energy          -18.310000        1.0000               21
         22        Energy          -18.300000        1.0000               22
         23        Energy          -18.260000        1.0000               23
         24        Energy          -18.220000        1.0000               24
         25        Energy          -18.160000        1.0000               25
         26        Energy          -18.310000        1.0000               26
         27        Energy          -18.300000        1.0000               27
         28        Energy          -18.260000        1.0000               28
         29        Energy          -18.220000        1.0000               29
         30        Energy          -18.160000        1.0000               30
         31        Energy          -18.310000        0.5000               31
         32        Energy          -18.290000        0.5000               32
         33        Energy          -18.260000        0.5000               33
         34        Energy          -18.210000        0.5000               34
         35        Energy          -18.150000        0.5000               35
         36        Energy          -18.310000        0.5000               36
         37        Energy          -18.290000        0.5000               37
         38        Energy          -18.260000        0.5000               38
         39        Energy          -18.210000        0.5000               39
         40        Energy          -18.150000        0.5000               40
         41        Energy          -18.310000        0.5000               41
         42        Energy          -18.290000        0.5000               42
         43        Energy          -18.260000        0.5000               43
[...]
         37        Energy           -18.29000    -14.86776    -18.24309
         38        Energy           -18.26000    -14.82620    -18.18519
         39        Energy           -18.21000    -14.77551    -18.11093
         40        Energy           -18.15000    -14.71636    -18.01917
         41        Energy           -18.31000    -14.89875    -18.28482
         42        Energy           -18.29000    -14.86776    -18.24309
         43        Energy           -18.26000    -14.82620    -18.18519
         44        Energy           -18.21000    -14.77551    -18.11093
         45        Energy           -18.15000    -14.71636    -18.01917
         46        Energy           -16.42000    -11.93768    -15.57894
         47        Energy           -17.33000    -13.65909    -17.07161
         48        Energy           -17.91000    -14.50178    -17.86430
         49        Energy           -18.23000    -14.84692    -18.22027
         50        Energy           -18.32000    -14.91684    -18.30966
         51        Energy           -18.24000    -14.84023    -18.24140
         52        Energy           -18.01000    -14.69113    -18.08510
         53        Energy           -17.66000    -14.51030    -17.88249
         54        Energy           -17.23000    -14.32003    -17.65915
         55        Energy           -16.72000    -14.13135    -17.42950
         56        Energy           -16.16000    -13.95040    -17.20321
         57        Energy           -18.31000    -14.91684    -18.30966
         58        Derivative         0.00000      0.35173      0.04276
         59        Derivative         0.00000      0.30458      0.06872
         60        Derivative         0.00000      0.30322      0.06947
         61        Derivative         0.00000      0.00124     -0.00068
         62        Derivative         0.00000      0.00603     -0.00332
         63        Derivative         0.00000      0.01015     -0.00559

  Maximum range for interatomic potentials =         8.000000 Angstroms

  Taper potentials to zero over   8.0000 Angstroms using Voter m =  20.0000

  General interatomic potentials :

Atom  Types   Potential         A         B         C         D     Cutoffs(Ang)
  1     2                                                            Min    Max
Sb   c Te2  c Morse         0.160      3.46     3.05     0.00       0.000 12.000
Sb   c Te1  c Morse         0.916E-01  1.73     3.34     0.00       0.000 12.000
Sb   c Sb   c Morse         0.844E-01 0.945     4.33     0.00       0.000 12.000
Te1  c Te1  c Morse         0.556E-01  1.05     4.41     0.00       0.000 12.000
Te1  c Te2  c Morse         0.277E-01 0.960     4.53     0.00       0.000 12.000
Te2  c Te2  c Morse         0.601E-01  2.72     3.90     0.00       0.000 12.000
Te2  c Te2  c Morse         0.762E-01  1.13     4.35     0.00       0.000 12.000

  Energy shifts for configurations :

      Configuration           Energy (eV)        Scale Factor
             1               -14.6738                 1.000
             2               -14.6738                 1.000
             3               -14.6738                 1.000
             4               -14.6738                 1.000
             5               -14.6738                 1.000
             6               -14.6738                 1.000
             7               -14.6738                 1.000
             8               -14.6738                 1.000
             9               -14.6738                 1.000
            10               -14.6738                 1.000
            11               -14.6738                 1.000
            12               -14.6738                 1.000
            13               -14.6738                 1.000
            14               -14.6738                 1.000
            15               -14.6738                 1.000
            16               -14.6738                 1.000
            17               -14.6738                 1.000
            18               -14.6738                 1.000
            19               -14.6738                 1.000
            20               -14.6738                 1.000
            21               -14.6738                 1.000
            22               -14.6738                 1.000
            23               -14.6738                 1.000
            24               -14.6738                 1.000
            25               -14.6738                 1.000
            26               -14.6738                 1.000
            27               -14.6738                 1.000
            28               -14.6738                 1.000
            29               -14.6738                 1.000
            30               -14.6738                 1.000
            31               -14.6738                 1.000
            32               -14.6738                 1.000
            33               -14.6738                 1.000
            34               -14.6738                 1.000
            35               -14.6738                 1.000
            36               -14.6738                 1.000
            37               -14.6738                 1.000
            38               -14.6738                 1.000
            39               -14.6738                 1.000
            40               -14.6738                 1.000
            41               -14.6738                 1.000
            42               -14.6738                 1.000
            43               -14.6738                 1.000
            44               -14.6738                 1.000
            45               -14.6738                 1.000
            46               -14.6738                 1.000
            47               -14.6738                 1.000
            48               -14.6738                 1.000
            49               -14.6738                 1.000
            50               -14.6738                 1.000
            51               -14.6738                 1.000
            52               -14.6738                 1.000
            53               -14.6738                 1.000
            54               -14.6738                 1.000
            55               -14.6738                 1.000
            56               -14.6738                 1.000
            57               -14.6738                 1.000
            58               -14.6738                 1.000

  Total time to end of fitting =     461.3208 seconds

*  Output for configuration   1                                                *

!! WARNING : No variables to optimise - single point performed

  Components of energy :

  Interatomic potentials     =          -3.62333958 eV
  Monopole - monopole (real) =           0.01502904 eV
  Monopole - monopole (recip)=          -0.02617181 eV
  Monopole - monopole (total)=          -0.01114278 eV
  Energy shift               =         -14.67383128 eV
  Total lattice energy       =         -18.30831364 eV
  Total lattice energy       =           -1766.4724 kJ/(mole unit cells)

  Born effective charge tensors :

  Atom             x           y             z
   1 Sb    x       0.1069      0.0000      0.0000
           y       0.0000      0.1069      0.0000
           z       0.0000      0.0000      0.1069
   2 Sb    x       0.1069      0.0000      0.0000
           y       0.0000      0.1069      0.0000
           z       0.0000      0.0000      0.1069
   3 Te1   x       0.1894      0.0000      0.0000
           y       0.0000      0.1894      0.0000
           z       0.0000      0.0000      0.1894
   4 Te2   x      -0.2015      0.0000      0.0000
           y       0.0000     -0.2015      0.0000
           z       0.0000      0.0000     -0.2015
   5 Te2   x      -0.2015      0.0000      0.0000
           y       0.0000     -0.2015      0.0000
           z       0.0000      0.0000     -0.2015

  Elastic Constant Matrix: (Units=GPa)

  Indices      1         2         3         4         5         6
       1     45.0109   23.8727   31.7882   -7.2580   -2.3638   -3.9813
       2     23.8727   41.5445   20.3780    9.8795   14.6010    4.9226
       3     31.7882   20.3780   32.8657   -1.9217  -10.2258    2.4467
       4     -7.2580    9.8795   -1.9217   16.0169    2.2212   14.4671
       5     -2.3638   14.6010  -10.2258    2.2212   26.0911   -7.2071
       6     -3.9813    4.9226    2.4467   14.4671   -7.2071   18.2312

  Elastic Compliance Matrix: (Units=1/GPa)

[...]

 Mechanical properties :

  Convention :                    Reuss         Voigt         Hill
  Bulk  Modulus (GPa)     =      27.19334      30.16655      28.67994
  Shear Modulus (GPa)     =       1.57943      14.95998       8.26971
  Velocity S-wave (km/s)  =       1.60752       4.94735       3.67834
  Velocity P-wave (km/s)  =       6.92366       9.05490       8.06003
  Compressibility (1/GPa) =    0.03677371
  Stress axis :                     x             y             z
  Youngs Moduli (GPa)     =       8.31013       3.86362       2.93248
  Poissons Ratio (x)      =                     0.09102       0.30278
  Poissons Ratio (y)      =       0.19577                     0.63016
  Poissons Ratio (z)      =       0.85802       0.83025

  Piezoelectric Strain Matrix: (Units=C/m**2)

  Indices      1         2         3         4         5         6
       x    -0.00641   0.02168   0.01980   0.00172   0.00104   0.00175
       y     0.00773   0.00576   0.00525  -0.00698   0.00556  -0.02252
       z     0.00459  -0.00371   0.01025  -0.00026  -0.02859   0.00556

  Piezoelectric Stress Matrix: (Units=10**-11 C/N)

[...]

  Static dielectric constant tensor :

              x         y         z
       x     1.03284  -0.00091  -0.00054
       y    -0.00091   1.03804  -0.00003
       z    -0.00054  -0.00003   1.03807

  Static refractive indices :

    1 =    1.01618      2 =    1.01887      3 =    1.01894

  Time to end of properties =     461.3248 seconds

[...]

!! WARNING : No variables to optimise - single point performed

[...]

  Time to end of properties =     461.4728 seconds

*  Output for configuration  58                                                *

[...]

  Number of variables =      6

  Maximum number of calculations  =          1000
  Maximum Hessian update interval =            10
  Maximum step size               =   1.000000000
  Maximum parameter tolerance     =   0.000010000
  Maximum function  tolerance     =   0.000010000
  Maximum gradient  tolerance     =   0.001000000
  Maximum gradient  component     =   0.010000000

  Symmetry not applied to optimisation

  Cell parameters to be optimised using strains

  Newton-Raphson optimiser to be used

  BFGS hessian update to be used

  Dumpfile to be written after every cycle

  Start of bulk optimisation :

  ** Hessian calculated **

  **** Optimisation achieved ****

  Final energy =     -18.30973058 eV
  Final Gnorm  =       0.00000089

  Components of energy :

  Interatomic potentials     =          -3.63518058 eV
  Monopole - monopole (real) =           0.01814282 eV
  Monopole - monopole (recip)=          -0.01886154 eV
  Monopole - monopole (total)=          -0.00071872 eV
  Energy shift               =         -14.67383128 eV
  Total lattice energy       =         -18.30973058 eV
  Total lattice energy       =           -1766.6091 kJ/(mole unit cells)

  Final fractional coordinates of atoms :

   No.  Atomic        x           y          z          Radius
        Label       (Frac)      (Frac)     (Frac)       (Angs)
     1  Sb    c     0.396797    0.396797    0.396797    0.000000
     2  Sb    c     0.603203    0.603203    0.603203    0.000000
     3  Te1   c     0.000000    0.000000    0.000000    0.000000
     4  Te2   c     0.784571    0.784571    0.784571    0.000000
     5  Te2   c     0.215429    0.215429    0.215429    0.000000

  Final Cartesian lattice vectors (Angstroms) :

       10.753007    0.005915    0.003512
        9.878400    4.247871    0.003512
        9.878400    2.036730    3.727754

  Final cell parameters and derivatives :

       a           10.753009 Angstrom     dE/de1(xx)     0.000003 eV/strain
       b           10.753009 Angstrom     dE/de2(yy)     0.000003 eV/strain
       c           10.753009 Angstrom     dE/de3(zz)     0.000003 eV/strain
       alpha       23.236966 Degrees      dE/de4(yz)    -0.000000 eV/strain
       beta        23.236966 Degrees      dE/de5(xz)    -0.000000 eV/strain
       gamma       23.236966 Degrees      dE/de6(xy)    -0.000000 eV/strain

  Primitive cell volume =           169.902861 Angs**3

  Density of cell =      6.121216 g/cm**3

  Non-primitive cell volume =           169.902861 Angs**3

  Final internal derivatives :

   No.  Atomic          x             y             z           Radius
        Label          (eV)          (eV)          (eV)        (eV/Angs)
      1 Sb    c       0.000000      0.000000      0.000000      0.000000
      2 Sb    c       0.000000      0.000000      0.000000      0.000000
      3 Te1   c       0.000000      0.000000      0.000000      0.000000
      4 Te2   c       0.000000      0.000000      0.000000      0.000000
      5 Te2   c       0.000000      0.000000      0.000000      0.000000
  Maximum abs         0.000000      0.000000      0.000000      0.000000

  Born effective charge tensors :

  Atom             x           y             z
   1 Sb    x       0.1069      0.0000      0.0000
           y       0.0000      0.1069      0.0000
           z       0.0000      0.0000      0.1069
   2 Sb    x       0.1069      0.0000      0.0000
           y       0.0000      0.1069      0.0000
           z       0.0000      0.0000      0.1069
   3 Te1   x       0.1894      0.0000      0.0000
           y       0.0000      0.1894      0.0000
           z       0.0000      0.0000      0.1894
   4 Te2   x      -0.2015      0.0000      0.0000
           y       0.0000     -0.2015      0.0000
           z       0.0000      0.0000     -0.2015
   5 Te2   x      -0.2015      0.0000      0.0000
           y       0.0000     -0.2015      0.0000
           z       0.0000      0.0000     -0.2015

  Elastic Constant Matrix: (Units=GPa)

[...]

  Elastic Compliance Matrix: (Units=1/GPa)

  Indices      1         2         3         4         5         6
       1    0.089453 -0.023972 -0.067394  0.079631 -0.021695 -0.036541
       2   -0.023972  0.179049 -0.137089 -0.114153 -0.145741 -0.002045
       3   -0.067394 -0.137089  0.223043  0.033473  0.162347  0.030015
       4    0.079631 -0.114153  0.033473  0.486043 -0.056522 -0.360681
       5   -0.021695 -0.145741  0.162347 -0.056522  0.223557  0.144995
       6   -0.036541 -0.002045  0.030015 -0.360681  0.144995  0.381688

 Mechanical properties :

  Convention :                    Reuss         Voigt         Hill
  Bulk  Modulus (GPa)     =      28.87240      31.07129      29.97184
  Shear Modulus (GPa)     =       2.43749      15.79225       9.11487
  Velocity S-wave (km/s)  =       1.99551       5.07929       3.85884
  Velocity P-wave (km/s)  =       7.24411       9.22816       8.29566
  Compressibility (1/GPa) =    0.03463515
  Stress axis :                     x             y             z
  Youngs Moduli (GPa)     =      11.17905       5.58508       4.48343
  Poissons Ratio (x)      =                     0.13388       0.30216
  Poissons Ratio (y)      =       0.26798                     0.61463
  Poissons Ratio (z)      =       0.75341       0.76565

  Piezoelectric Strain Matrix: (Units=C/m**2)

[...]

  Piezoelectric Stress Matrix: (Units=10**-11 C/N)

  Indices      1         2         3         4         5         6
       x    -0.00000   0.00000   0.00000  -0.00000  -0.00000  -0.00000
       y    -0.00000   0.00000   0.00000   0.00000  -0.00000  -0.00000
       z    -0.00000   0.00000  -0.00000   0.00000   0.00000  -0.00000

  Static dielectric constant tensor :

              x         y         z
       x     1.03363  -0.00100  -0.00060
       y    -0.00100   1.03829  -0.00012
       z    -0.00060  -0.00012   1.03842

  Static refractive indices :

    1 =    1.01654      2 =    1.01907      3 =    1.01907

  Time to end of optimisation =     461.5128 seconds

  Timing analysis for GULP :

  Task / Subroutine                                          Time (Seconds)
  Calculation of reciprocal space energy and derivatives         28.0778
  Calculation of real space energy and derivatives              420.5423
  Sum of squares for fitting                                     10.2006
  Global summation overhead                                       0.4200

  Dump file written as sb2te3.res

  **** GULP has completed with  57 warnings - beware! ****

  Job Finished at 18:07.27 21st June       2010