  Job Started  at 12:13.24 22nd June       2010

  Number of CPUs =     1

  Total number of configurations input = 103

*  Input for Configuration =   1                                               *

  Formula = Sb2Te3

  Number of irreducible atoms/shells =       5

  Total number atoms/shells =       5

  Dimensionality = 3               :  Bulk

  Cartesian lattice vectors (Angstroms) :

       -2.504286    0.000000   10.443767
        1.252143   -2.168775   10.443767
        1.252143    2.168775   10.443767

  Cell parameters (Angstroms/Degrees):

  a =      10.7398    alpha =  23.3006
  b =      10.7398    beta  =  23.3006
  c =      10.7398    gamma =  23.3006

  Initial cell volume =         170.167643 Angs**3

  Temperature of configuration =  0.000     K

  Pressure of configuration =         0.000 GPa

  Fractional coordinates of asymmetric unit :

   No.  Atomic       x           y          z         Charge      Occupancy
        Label      (Frac)      (Frac)     (Frac)        (e)         (Frac)
      1 Sb    c    0.396797    0.396797    0.396797      0.1090    1.000000
      2 Sb    c    0.603203    0.603203    0.603203      0.1090    1.000000
      3 Te1   c    0.930000    0.930000    0.930000      0.1600    1.000000
      4 Te2   c    0.784571    0.784571    0.784571     -0.1890    1.000000
      5 Te2   c    0.215429    0.215429    0.215429     -0.1890    1.000000

[...]

   No.  Atomic       x           y          z         Charge      Occupancy
        Label      (Frac)      (Frac)     (Frac)        (e)         (Frac)
      1 Sb    c    0.396797    0.396797    0.396797      0.1090    1.000000
      2 Sb    c    0.603203    0.603203    0.603203      0.1090    1.000000
      3 Te1   c    0.000000    0.000000    0.000000      0.1600    1.000000
      4 Te2   c    0.784571    0.784571    0.784571     -0.1890    1.000000
      5 Te2   c    0.215429    0.215429    0.215429     -0.1890    1.000000

*  Input for Configuration = 103                                               *

  Formula = Sb2Te3

  Number of irreducible atoms/shells =       5

  Total number atoms/shells =       5

  Dimensionality = 3               :  Bulk

  Cartesian lattice vectors (Angstroms) :

[...]

  Cell parameters (Angstroms/Degrees):

  a =      10.7398    alpha =  23.3000
  b =      10.7398    beta  =  23.3000
  c =      10.7398    gamma =  23.3000

  Initial cell volume =         170.158355 Angs**3

  Temperature of configuration =  0.000     K

  Pressure of configuration =         0.000 GPa

  Fractional coordinates of asymmetric unit :

   No.  Atomic       x           y          z         Charge      Occupancy
        Label      (Frac)      (Frac)     (Frac)        (e)         (Frac)
      1 Sb    c    0.396797    0.396797    0.396797      0.1090    1.000000
      2 Sb    c    0.603203 *  0.603203 *  0.603203 *    0.1090    1.000000
      3 Te1   c    0.000000 *  0.000000 *  0.000000 *    0.1600    1.000000
      4 Te2   c    0.784571 *  0.784571 *  0.784571 *   -0.1890    1.000000
      5 Te2   c    0.215429 *  0.215429 *  0.215429 *   -0.1890    1.000000

*  General input information                                                   *

  Species output for all configurations :

  Species    Type    Atomic    Atomic    Charge       Radii (Angs)     Library
                     Number     Mass       (e)     Cova   Ionic  VDW   Symbol
    Sb       Core       51     121.75     0.1090   1.460  0.000  2.170
    Te1      Core       52     127.60     0.1600   1.470  0.000  2.200
    Te2      Core       52     127.60    -0.1890   1.470  0.000  2.200

  Lattice summation method               =    Ewald
  Accuracy factor for lattice sums       =    8.000

  Time limit = Infinity

  Maximum range for interatomic potentials =         8.000000 Angstroms

  Taper potentials to zero over   8.0000 Angstroms using Voter m =  20.0000

  General interatomic potentials :

Atom  Types   Potential         A         B         C         D     Cutoffs(Ang)
  1     2                                                            Min    Max
Sb   c Te2  c Morse         0.159      3.46     3.05     0.00       0.000 12.000
Sb   c Te1  c Morse         0.910E-01  1.72     3.34     0.00       0.000 12.000
Sb   c Sb   c Morse         0.540E-01  1.03     4.34     0.00       0.000 12.000
Te1  c Te1  c Morse         0.500E-01  1.05     4.39     0.00       0.000 12.000
Te1  c Te2  c Morse         0.190E-01  1.01     4.52     0.00       0.000 12.000
Te2  c Te2  c Morse         0.100      3.50     3.82     0.00       0.000 12.000
Te2  c Te2  c Morse         0.670E-01  1.07     4.22     0.00       0.000 12.000

  Energy shifts for configurations :

      Configuration           Energy (eV)        Scale Factor
             1               -14.6000                 1.000
             2               -14.6000                 1.000
             3               -14.6000                 1.000
             4               -14.6000                 1.000
             5               -14.6000                 1.000
             6               -14.6000                 1.000
             7               -14.6000                 1.000
             8               -14.6000                 1.000
             9               -14.6000                 1.000
            10               -14.6000                 1.000
            11               -14.6000                 1.000
            12               -14.6000                 1.000
            13               -14.6000                 1.000
            14               -14.6000                 1.000
            15               -14.6000                 1.000
            16               -14.6000                 1.000
            17               -14.6000                 1.000
            18               -14.6000                 1.000
            19               -14.6000                 1.000
            20               -14.6000                 1.000
            21               -14.6000                 1.000
            22               -14.6000                 1.000
            23               -14.6000                 1.000
            24               -14.6000                 1.000
            25               -14.6000                 1.000
            26               -14.6000                 1.000
            27               -14.6000                 1.000
            28               -14.6000                 1.000
            29               -14.6000                 1.000
            30               -14.6000                 1.000
            31               -14.6000                 1.000
            32               -14.6000                 1.000
            33               -14.6000                 1.000
            34               -14.6000                 1.000
            35               -14.6000                 1.000
            36               -14.6000                 1.000
            37               -14.6000                 1.000
            38               -14.6000                 1.000
            39               -14.6000                 1.000
            40               -14.6000                 1.000
            41               -14.6000                 1.000
            42               -14.6000                 1.000
            43               -14.6000                 1.000
            44               -14.6000                 1.000
            45               -14.6000                 1.000
            46               -14.6000                 1.000
            47               -14.6000                 1.000
            48               -14.6000                 1.000
            49               -14.6000                 1.000
            50               -14.6000                 1.000
            51               -14.6000                 1.000
            52               -14.6000                 1.000
            53               -14.6000                 1.000
            54               -14.6000                 1.000
            55               -14.6000                 1.000
            56               -14.6000                 1.000
            57               -14.6000                 1.000
            58               -14.6000                 1.000
            59               -14.6000                 1.000
            60               -14.6000                 1.000
[...]
            89               -14.6000                 1.000
            90               -14.6000                 1.000
            91               -14.6000                 1.000
            92               -14.6000                 1.000
            93               -14.6000                 1.000
            94               -14.6000                 1.000
            95               -14.6000                 1.000
            96               -14.6000                 1.000
            97               -14.6000                 1.000
            98               -14.6000                 1.000
            99               -14.6000                 1.000
           100               -14.6000                 1.000
           101               -14.6000                 1.000
           102               -14.6000                 1.000
           103               -14.6000                 1.000

  Number of variables   =   15
  Number of observables =  120

   Observable no.  Type           Observable    Weight       Reference  Confign
          1        Energy          -11.870000        0.1000                1
          2        Energy          -12.400000        0.1000                2
          3        Energy          -13.510000        0.1000                3
          4        Energy          -14.930000        0.1000                4
          5        Energy          -16.310000        0.1000                5
          6        Energy          -17.420000        1.0000                6
          7        Energy          -18.100000        1.0000                7
          8        Energy          -18.310000        1.0000                8
          9        Energy          -18.100000        1.0000                9
         10        Energy          -17.420000        1.0000               10
         11        Energy          -16.310000        0.1000               11
         12        Energy          -14.930000        0.1000               12
         13        Energy          -13.510000        0.1000               13
         14        Energy          -12.400000        0.1000               14
         15        Energy          -11.870000        0.1000               15
         16        Energy          -13.401616        0.1000               16
         17        Energy          -14.060568        0.1000               17
         18        Energy          -14.959104        0.1000               18
         19        Energy          -15.953355        0.1000               19
         20        Energy          -16.897777        0.1000               20
         21        Energy          -17.660749        0.1000               21
         22        Energy          -18.149304        1.0000               22
         23        Energy          -18.310000        1.0000               23
[...]
        109        Derivative         0.00000      1.59454      0.60356
        110        Derivative         0.00000      1.59454      0.60356
        111        Derivative         0.00000      1.59454      0.60356
        112        Derivative         0.00000      0.00000      0.00000
        113        Derivative         0.00000      0.00000      0.00000
        114        Derivative         0.00000      0.00000      0.00000
        115        Derivative         0.00000     -2.08726     -0.00082
        116        Derivative         0.00000     -2.08726     -0.00082
        117        Derivative         0.00000     -2.08726     -0.00082
        118        Derivative         0.00000      2.08727      0.00082
        119        Derivative         0.00000      2.08727      0.00082
        120        Derivative         0.00000      2.08727      0.00082

  Maximum range for interatomic potentials =         8.000000 Angstroms

  Taper potentials to zero over   8.0000 Angstroms using Voter m =  20.0000

  General interatomic potentials :

Atom  Types   Potential         A         B         C         D     Cutoffs(Ang)
  1     2                                                            Min    Max
Sb   c Te2  c Morse         0.159      3.46     3.05     0.00       0.000 12.000
Sb   c Te1  c Morse         0.910E-01  1.72     3.34     0.00       0.000 12.000
Sb   c Sb   c Morse         0.540E-01  1.03     4.34     0.00       0.000 12.000
Te1  c Te1  c Morse         -.503E-01  1.15     4.42     0.00       0.000 12.000
Te1  c Te2  c Morse         0.203E-01  1.42     3.63     0.00       0.000 12.000
Te2  c Te2  c Morse         0.190      3.90     3.02     0.00       0.000 12.000
Te2  c Te2  c Morse         0.318E-01  1.12     4.33     0.00       0.000 12.000

  Energy shifts for configurations :

      Configuration           Energy (eV)        Scale Factor
             1               -16.0088                 1.000
             2               -16.0088                 1.000
             3               -16.0088                 1.000
             4               -16.0088                 1.000
             5               -16.0088                 1.000
             6               -16.0088                 1.000
             7               -16.0088                 1.000
             8               -16.0088                 1.000
             9               -16.0088                 1.000
            10               -16.0088                 1.000
            11               -16.0088                 1.000
            12               -16.0088                 1.000
            13               -16.0088                 1.000
            14               -16.0088                 1.000
            15               -16.0088                 1.000
            16               -16.0088                 1.000
            17               -16.0088                 1.000
            18               -16.0088                 1.000
            19               -16.0088                 1.000
            20               -16.0088                 1.000
            21               -16.0088                 1.000
            22               -16.0088                 1.000
            23               -16.0088                 1.000
            24               -16.0088                 1.000
            25               -16.0088                 1.000
            26               -16.0088                 1.000
            27               -16.0088                 1.000
            28               -16.0088                 1.000
            29               -16.0088                 1.000
            30               -16.0088                 1.000
            31               -16.0088                 1.000
            32               -16.0088                 1.000
            33               -16.0088                 1.000
            34               -16.0088                 1.000
            35               -16.0088                 1.000
            36               -16.0088                 1.000
            37               -16.0088                 1.000
            38               -16.0088                 1.000
            39               -16.0088                 1.000
            40               -16.0088                 1.000
            41               -16.0088                 1.000
            42               -16.0088                 1.000
            43               -16.0088                 1.000
            44               -16.0088                 1.000
            45               -16.0088                 1.000
            46               -16.0088                 1.000
            47               -16.0088                 1.000
            48               -16.0088                 1.000
            49               -16.0088                 1.000
            50               -16.0088                 1.000
            51               -16.0088                 1.000
            52               -16.0088                 1.000
            53               -16.0088                 1.000
            54               -16.0088                 1.000
            55               -16.0088                 1.000
            56               -16.0088                 1.000
            57               -16.0088                 1.000
            58               -16.0088                 1.000
            59               -16.0088                 1.000
            60               -16.0088                 1.000
[...]
            89               -16.0088                 1.000
            90               -16.0088                 1.000
            91               -16.0088                 1.000
            92               -16.0088                 1.000
            93               -16.0088                 1.000
            94               -16.0088                 1.000
            95               -16.0088                 1.000
            96               -16.0088                 1.000
            97               -16.0088                 1.000
            98               -16.0088                 1.000
            99               -16.0088                 1.000
           100               -16.0088                 1.000
           101               -16.0088                 1.000
           102               -16.0088                 1.000
           103               -16.0088                 1.000

  Total time to end of fitting =     423.1344 seconds

*  Output for configuration   1                                                *

!! WARNING : No variables to optimise - single point performed

  Components of energy :

  Interatomic potentials     =           0.84190862 eV
  Monopole - monopole (real) =          -0.00806408 eV
  Monopole - monopole (recip)=          -0.04154212 eV
  Monopole - monopole (total)=          -0.04960620 eV
  Energy shift               =         -16.00883148 eV
  Total lattice energy       =         -15.21652906 eV
  Total lattice energy       =           -1468.1624 kJ/(mole unit cells)

  Born effective charge tensors :

  Atom             x           y             z
   1 Sb    x       0.0618      0.0000      0.0000
           y       0.0000      0.0618      0.0000
           z       0.0000      0.0000      0.0618
   2 Sb    x       0.0618      0.0000      0.0000
           y       0.0000      0.0618      0.0000
           z       0.0000      0.0000      0.0618
   3 Te1   x       0.0842      0.0000      0.0000
           y       0.0000      0.0842      0.0000
           z       0.0000      0.0000      0.0842
   4 Te2   x      -0.1039      0.0000      0.0000
           y       0.0000     -0.1039      0.0000
           z       0.0000      0.0000     -0.1039
   5 Te2   x      -0.1039      0.0000      0.0000
           y       0.0000     -0.1039      0.0000
           z       0.0000      0.0000     -0.1039

  Elastic Constant Matrix: (Units=GPa)

  Indices      1         2         3         4         5         6
       1     49.0397   72.9038   -4.2020   -0.0000   -0.2424    0.0000
       2     72.9038   49.0397   -4.2020   -0.0000    0.2424    0.0000
       3     -4.2020   -4.2020   -0.6349   -0.0000    0.0000   -0.0000
       4     -0.0000   -0.0000   -0.0000   -7.1670   -0.0000    0.2424
       5     -0.2424    0.2424    0.0000   -0.0000   -7.1670    0.0000
       6      0.0000    0.0000   -0.0000    0.2424    0.0000  -11.9320

  Elastic Compliance Matrix: (Units=1/GPa)

[...]

 Mechanical properties :

  Convention :                    Reuss         Voigt         Hill
  Bulk  Modulus (GPa)     =      -0.81997      25.16047      12.17025
  Shear Modulus (GPa)     =      -2.79936      -3.05690      -2.92813
  Velocity S-wave (km/s)  =      -2.14017      -2.23645      -2.18884
  Velocity P-wave (km/s)  =       2.72924       5.87357       3.67764
  Compressibility (1/GPa) =   -1.21955871
  Stress axis :                     x             y             z
  Youngs Moduli (GPa)     =     -55.09462     -55.09462      -0.92445
  Poissons Ratio (x)      =                     1.31027      -0.03446
  Poissons Ratio (y)      =       1.31027                    -0.03446
  Poissons Ratio (z)      =      -2.05363      -2.05363

  Piezoelectric Strain Matrix: (Units=C/m**2)

  Indices      1         2         3         4         5         6
       x    -0.32196   0.32196   0.00000  -0.00000  -0.27228   0.00000
       y     0.00000   0.00000   0.00000  -0.27228  -0.00000   0.32196
       z    -0.72980  -0.72980  -0.40624  -0.00000   0.00000  -0.00000

  Piezoelectric Stress Matrix: (Units=10**-11 C/N)

[...]

  Static dielectric constant tensor :

              x         y         z
       x     1.05423   0.00000   0.00000
       y     0.00000   1.05423  -0.00000
       z     0.00000  -0.00000   1.02966

  Static refractive indices :

    1 =    1.01472      2 =    1.02675      3 =    1.02675

  Time to end of properties =     423.1384 seconds

[...]

!! WARNING : No variables to optimise - single point performed

[...]

  Time to end of properties =     423.3865 seconds

*  Output for configuration 103                                                *

[...]

  Number of variables =     18

  Maximum number of calculations  =          1000
  Maximum Hessian update interval =            10
  Maximum step size               =   1.000000000
  Maximum parameter tolerance     =   0.000010000
  Maximum function  tolerance     =   0.000010000
  Maximum gradient  tolerance     =   0.001000000
  Maximum gradient  component     =   0.010000000

  Symmetry not applied to optimisation

  Cell parameters to be optimised using strains

  Newton-Raphson optimiser to be used

  BFGS hessian update to be used

  Dumpfile to be written after every cycle

  Start of bulk optimisation :

  ** Hessian calculated **
  ** Hessian calculated **
  ** Hessian calculated **

  **** Optimisation achieved ****

  Final energy =     -18.75532822 eV
  Final Gnorm  =       0.00051280

  Components of energy :

  Interatomic potentials     =          -2.61854523 eV
  Monopole - monopole (real) =          -0.02342117 eV
  Monopole - monopole (recip)=          -0.10453034 eV
  Monopole - monopole (total)=          -0.12795151 eV
  Energy shift               =         -16.00883148 eV
  Total lattice energy       =         -18.75532822 eV
  Total lattice energy       =           -1809.6025 kJ/(mole unit cells)

  Final fractional coordinates of atoms :

   No.  Atomic        x           y          z          Radius
        Label       (Frac)      (Frac)     (Frac)       (Angs)
     1  Sb    c     0.396797    0.396797    0.396797    0.000000
     2  Sb    c     0.591772    0.591776    0.591880    0.000000
     3  Te1   c     0.994284    0.994290    0.994333    0.000000
     4  Te2   c     0.749828    0.749844    0.749939    0.000000
     5  Te2   c     0.238740    0.238730    0.238730    0.000000

  Final Cartesian lattice vectors (Angstroms) :

        6.963281   -1.225543   -0.727003
        5.910643    3.879821   -0.727025
        5.910858    1.218649    3.756344

  Final cell parameters and derivatives :

       a            7.107586 Angstrom     dE/de1(xx)    -0.001168 eV/strain
       b            7.107550 Angstrom     dE/de2(yy)     0.000239 eV/strain
       c            7.108690 Angstrom     dE/de3(zz)     0.000149 eV/strain
       alpha       43.029528 Degrees      dE/de4(yz)     0.000395 eV/strain
       beta        43.029106 Degrees      dE/de5(xz)     0.000137 eV/strain
       gamma       43.025023 Degrees      dE/de6(xy)    -0.000298 eV/strain

  Primitive cell volume =           151.564236 Angs**3

  Density of cell =      6.861857 g/cm**3

  Non-primitive cell volume =           151.564236 Angs**3

  Final internal derivatives :

   No.  Atomic          x             y             z           Radius
        Label          (eV)          (eV)          (eV)        (eV/Angs)
      1 Sb    c       0.000000      0.000000      0.000000      0.000000
      2 Sb    c       0.003339      0.004112      0.005450      0.000000
      3 Te1   c      -0.000017      0.000094     -0.000131      0.000000
      4 Te2   c      -0.003295     -0.002397     -0.000757      0.000000
      5 Te2   c       0.002335      0.001616     -0.000688      0.000000
  Maximum abs         0.003339      0.004112      0.005450      0.000000

  Born effective charge tensors :

  Atom             x           y             z
   1 Sb    x       0.0618      0.0000      0.0000
           y       0.0000      0.0618      0.0000
           z       0.0000      0.0000      0.0618
   2 Sb    x       0.0618      0.0000      0.0000
           y       0.0000      0.0618      0.0000
           z       0.0000      0.0000      0.0618
   3 Te1   x       0.0842      0.0000      0.0000
           y       0.0000      0.0842      0.0000
           z       0.0000      0.0000      0.0842
   4 Te2   x      -0.1039      0.0000      0.0000
           y       0.0000     -0.1039      0.0000
           z       0.0000      0.0000     -0.1039
   5 Te2   x      -0.1039      0.0000      0.0000
           y       0.0000     -0.1039      0.0000
           z       0.0000      0.0000     -0.1039

  Elastic Constant Matrix: (Units=GPa)

[...]

  Elastic Compliance Matrix: (Units=1/GPa)

  Indices      1         2         3         4         5         6
       1    0.041114  0.022104  0.016457  0.010670  0.071186  0.119372
       2    0.022104  0.009009 -0.015769  0.014638  0.051587 -0.105538
       3    0.016457 -0.015769  0.012891 -0.021867 -0.106068  0.013837
       4    0.010670  0.014638 -0.021867  0.100361 -0.113000  0.019391
       5    0.071186  0.051587 -0.106068 -0.113000 -0.424496  0.003951
       6    0.119372 -0.105538  0.013837  0.019391  0.003951 -0.419508

 Mechanical properties :

  Convention :                    Reuss         Voigt         Hill
  Bulk  Modulus (GPa)     =       9.20826      25.90235      17.55531
  Shear Modulus (GPa)     =      -7.24623       8.29484       0.52431
  Velocity S-wave (km/s)  =      -3.24964       3.47683       0.87412
  Velocity P-wave (km/s)  =       0.81284       7.33935       5.15778
  Compressibility (1/GPa) =    0.10859812
  Stress axis :                     x             y             z
  Youngs Moduli (GPa)     =      24.32285     110.99476      77.57428
  Poissons Ratio (x)      =                    -2.45338      -1.27665
  Poissons Ratio (y)      =      -0.53762                     1.22324
  Poissons Ratio (z)      =      -0.40029       1.75023

  Piezoelectric Strain Matrix: (Units=C/m**2)

[...]

  Piezoelectric Stress Matrix: (Units=10**-11 C/N)

  Indices      1         2         3         4         5         6
       x     0.00001  -0.00003  -0.00002   0.00001  -0.00030   0.00019
       y     0.00000   0.00003  -0.00001  -0.00011   0.00004   0.00011
       z    -0.00011   0.00002   0.00004   0.00011   0.00029   0.00003

  Static dielectric constant tensor :

              x         y         z
       x     1.01611   0.00173   0.00103
       y     0.00173   1.00808   0.00021
       z     0.00103   0.00021   1.00785

  Static refractive indices :

    1 =    1.00385      2 =    1.00385      3 =    1.00826

  Time to end of optimisation =     423.9705 seconds

  Timing analysis for GULP :

  Task / Subroutine                                          Time (Seconds)
  Calculation of reciprocal space energy and derivatives         28.3698
  Calculation of real space energy and derivatives              381.3598
  Sum of squares for fitting                                     10.3767
  Global summation overhead                                       0.4240

  Dump file written as sb2te3.res

  **** GULP has completed with 102 warnings - beware! ****

  Job Finished at 12:20.34 22nd June       2010