  Job Started  at 21:26.57 21st June       2010

  Number of CPUs =     1

  Total number of configurations input =  58

*  Input for Configuration =   1                                               *

  Formula = Sb2Te3

  Number of irreducible atoms/shells =       5

  Total number atoms/shells =       5

  Dimensionality = 3               :  Bulk

  Cartesian lattice vectors (Angstroms) :

       10.739800    0.000000    0.000000
        9.863930    4.248080    0.000000
        9.863930    2.033746    3.729619

  Cell parameters (Angstroms/Degrees):

  a =      10.7398    alpha =  23.3000
  b =      10.7398    beta  =  23.3000
  c =      10.7398    gamma =  23.3000

  Initial cell volume =         170.158355 Angs**3

  Temperature of configuration =  0.000     K

  Pressure of configuration =         0.000 GPa

  Fractional coordinates of asymmetric unit :

   No.  Atomic       x           y          z         Charge      Occupancy
        Label      (Frac)      (Frac)     (Frac)        (e)         (Frac)
      1 Sb    c    0.401797    0.396797    0.396797      0.1090    1.000000
      2 Sb    c    0.603203    0.603203    0.603203      0.1090    1.000000
      3 Te1   c    0.000000    0.000000    0.000000      0.1600    1.000000
      4 Te2   c    0.784571    0.784571    0.784571     -0.1890    1.000000
      5 Te2   c    0.215429    0.215429    0.215429     -0.1890    1.000000

[...]

   No.  Atomic       x           y          z         Charge      Occupancy
        Label      (Frac)      (Frac)     (Frac)        (e)         (Frac)
      1 Sb    c    0.396797    0.396797    0.396797      0.1090    1.000000
      2 Sb    c    0.603203    0.603203    0.603203      0.1090    1.000000
      3 Te1   c    0.000000    0.000000    0.000000      0.1600    1.000000
      4 Te2   c    0.784571    0.784571    0.784571     -0.1890    1.000000
      5 Te2   c    0.215429    0.215429    0.215429     -0.1890    1.000000

*  Input for Configuration =  58                                               *

  Formula = Sb2Te3

  Number of irreducible atoms/shells =       5

  Total number atoms/shells =       5

  Dimensionality = 3               :  Bulk

  Cartesian lattice vectors (Angstroms) :

[...]

  Cell parameters (Angstroms/Degrees):

  a =      10.7398    alpha =  23.3000
  b =      10.7398    beta  =  23.3000
  c =      10.7398    gamma =  23.3000

  Initial cell volume =         170.158355 Angs**3

  Temperature of configuration =  0.000     K

  Pressure of configuration =         0.000 GPa

  Fractional coordinates of asymmetric unit :

   No.  Atomic       x           y          z         Charge      Occupancy
        Label      (Frac)      (Frac)     (Frac)        (e)         (Frac)
      1 Sb    c    0.396797    0.396797    0.396797      0.1090    1.000000
      2 Sb    c    0.603203 *  0.603203 *  0.603203 *    0.1090    1.000000
      3 Te1   c    0.000000 *  0.000000 *  0.000000 *    0.1600    1.000000
      4 Te2   c    0.784571 *  0.784571 *  0.784571 *   -0.1890    1.000000
      5 Te2   c    0.215429 *  0.215429 *  0.215429 *   -0.1890    1.000000

*  General input information                                                   *

  Species output for all configurations :

  Species    Type    Atomic    Atomic    Charge       Radii (Angs)     Library
                     Number     Mass       (e)     Cova   Ionic  VDW   Symbol
    Sb       Core       51     121.75     0.1090   1.460  0.000  2.170
    Te1      Core       52     127.60     0.1600   1.470  0.000  2.200
    Te2      Core       52     127.60    -0.1890   1.470  0.000  2.200

  Lattice summation method               =    Ewald
  Accuracy factor for lattice sums       =    8.000

  Time limit = Infinity

  Maximum range for interatomic potentials =         8.000000 Angstroms

  Taper potentials to zero over   8.0000 Angstroms using Voter m =  20.0000

  General interatomic potentials :

Atom  Types   Potential         A         B         C         D     Cutoffs(Ang)
  1     2                                                            Min    Max
Sb   c Te2  c Morse         0.159      3.46     3.05     0.00       0.000 12.000
Sb   c Te1  c Morse         0.910E-01  1.72     3.34     0.00       0.000 12.000
Sb   c Sb   c Morse         0.540E-01  1.03     4.34     0.00       0.000 12.000
Te1  c Te1  c Morse         0.500E-01  1.05     4.37     0.00       0.000 12.000
Te1  c Te2  c Morse         0.190E-01  1.01     4.52     0.00       0.000 12.000
Te2  c Te2  c Morse         0.540E-01  2.24     3.82     0.00       0.000 12.000
Te2  c Te2  c Morse         0.670E-01  1.12     4.30     0.00       0.000 12.000

  Energy shifts for configurations :

      Configuration           Energy (eV)        Scale Factor
             1               -14.6000                 1.000
             2               -14.6000                 1.000
             3               -14.6000                 1.000
             4               -14.6000                 1.000
             5               -14.6000                 1.000
             6               -14.6000                 1.000
             7               -14.6000                 1.000
             8               -14.6000                 1.000
             9               -14.6000                 1.000
            10               -14.6000                 1.000
            11               -14.6000                 1.000
            12               -14.6000                 1.000
            13               -14.6000                 1.000
            14               -14.6000                 1.000
            15               -14.6000                 1.000
            16               -14.6000                 1.000
            17               -14.6000                 1.000
            18               -14.6000                 1.000
            19               -14.6000                 1.000
            20               -14.6000                 1.000
            21               -14.6000                 1.000
            22               -14.6000                 1.000
            23               -14.6000                 1.000
            24               -14.6000                 1.000
            25               -14.6000                 1.000
            26               -14.6000                 1.000
            27               -14.6000                 1.000
            28               -14.6000                 1.000
            29               -14.6000                 1.000
            30               -14.6000                 1.000
            31               -14.6000                 1.000
            32               -14.6000                 1.000
            33               -14.6000                 1.000
            34               -14.6000                 1.000
            35               -14.6000                 1.000
            36               -14.6000                 1.000
            37               -14.6000                 1.000
            38               -14.6000                 1.000
            39               -14.6000                 1.000
            40               -14.6000                 1.000
            41               -14.6000                 1.000
            42               -14.6000                 1.000
            43               -14.6000                 1.000
            44               -14.6000                 1.000
            45               -14.6000                 1.000
            46               -14.6000                 1.000
            47               -14.6000                 1.000
            48               -14.6000                 1.000
            49               -14.6000                 1.000
            50               -14.6000                 1.000
            51               -14.6000                 1.000
            52               -14.6000                 1.000
            53               -14.6000                 1.000
            54               -14.6000                 1.000
            55               -14.6000                 1.000
            56               -14.6000                 1.000
            57               -14.6000                 1.000
            58               -14.6000                 1.000

  Number of variables   =   15
  Number of observables =   75

   Observable no.  Type           Observable    Weight       Reference  Confign
          1        Energy          -18.310000        0.5000                1
          2        Energy          -18.280000        0.5000                2
          3        Energy          -18.230000        0.5000                3
          4        Energy          -18.160000        0.5000                4
          5        Energy          -18.070000        0.5000                5
          6        Energy          -18.310000        0.5000                6
          7        Energy          -18.280000        0.5000                7
          8        Energy          -18.230000        0.5000                8
          9        Energy          -18.160000        0.5000                9
         10        Energy          -18.070000        0.5000               10
         11        Energy          -18.310000        0.5000               11
         12        Energy          -18.280000        0.5000               12
         13        Energy          -18.230000        0.5000               13
         14        Energy          -18.160000        0.5000               14
         15        Energy          -18.070000        0.5000               15
         16        Energy          -18.310000        1.0000               16
         17        Energy          -18.300000        1.0000               17
         18        Energy          -18.260000        1.0000               18
         19        Energy          -18.220000        1.0000               19
         20        Energy          -18.160000        1.0000               20
         21        Energy          -18.310000        1.0000               21
         22        Energy          -18.300000        1.0000               22
         23        Energy          -18.260000        1.0000               23
         24        Energy          -18.220000        1.0000               24
         25        Energy          -18.160000        1.0000               25
         26        Energy          -18.310000        1.0000               26
         27        Energy          -18.300000        1.0000               27
         28        Energy          -18.260000        1.0000               28
         29        Energy          -18.220000        1.0000               29
         30        Energy          -18.160000        1.0000               30
         31        Energy          -18.310000        1.0000               31
         32        Energy          -18.290000        1.0000               32
         33        Energy          -18.260000        1.0000               33
         34        Energy          -18.210000        1.0000               34
         35        Energy          -18.150000        1.0000               35
         36        Energy          -18.310000        1.0000               36
[...]
         49        Energy           -18.23000    -17.71098    -18.20809
         50        Energy           -18.32000    -17.79793    -18.29019
         51        Energy           -18.24000    -17.73956    -18.23151
         52        Energy           -18.01000    -17.59891    -18.09296
         53        Energy           -17.66000    -17.41489    -17.91205
         54        Energy           -17.23000    -17.21162    -17.71229
         55        Energy           -16.72000    -17.00304    -17.50722
         56        Energy           -16.16000    -16.79811    -17.30555
         57        Energy           -18.31000    -17.79793    -18.29019
         58        Derivative         0.00000     -0.01657     -0.33583
         59        Derivative         0.00000     -0.02765      0.17887
         60        Derivative         0.00000     -0.02797      0.19367
         61        Derivative         0.00000      0.00029     -0.01357
         62        Derivative         0.00000      0.00142     -0.06580
         63        Derivative         0.00000      0.00239     -0.11083
         64        Derivative         0.00000      1.59454      0.89569
         65        Derivative         0.00000      1.59454      0.89569
         66        Derivative         0.00000      1.59454      0.89569
         67        Derivative         0.00000      0.00000      0.00000
         68        Derivative         0.00000      0.00000      0.00000
         69        Derivative         0.00000      0.00000      0.00000
         70        Derivative         0.00000      1.72028     -0.00698
         71        Derivative         0.00000      1.72028     -0.00698
         72        Derivative         0.00000      1.72028     -0.00698
         73        Derivative         0.00000     -1.72028      0.00699
         74        Derivative         0.00000     -1.72028      0.00699
         75        Derivative         0.00000     -1.72028      0.00699

  Maximum range for interatomic potentials =         8.000000 Angstroms

  Taper potentials to zero over   8.0000 Angstroms using Voter m =  20.0000

  General interatomic potentials :

Atom  Types   Potential         A         B         C         D     Cutoffs(Ang)
  1     2                                                            Min    Max
Sb   c Te2  c Morse         0.159      3.46     3.05     0.00       0.000 12.000
Sb   c Te1  c Morse         0.910E-01  1.72     3.34     0.00       0.000 12.000
Sb   c Sb   c Morse         0.540E-01  1.03     4.34     0.00       0.000 12.000
Te1  c Te1  c Morse         0.496E-01  1.06     4.39     0.00       0.000 12.000
Te1  c Te2  c Morse         0.136E-01  1.04     4.53     0.00       0.000 12.000
Te2  c Te2  c Morse         0.500E-01  1.67     3.80     0.00       0.000 12.000
Te2  c Te2  c Morse         0.631E-01  1.08     4.23     0.00       0.000 12.000

  Energy shifts for configurations :

      Configuration           Energy (eV)        Scale Factor
             1               -15.1040                 1.000
             2               -15.1040                 1.000
             3               -15.1040                 1.000
             4               -15.1040                 1.000
             5               -15.1040                 1.000
             6               -15.1040                 1.000
             7               -15.1040                 1.000
             8               -15.1040                 1.000
             9               -15.1040                 1.000
            10               -15.1040                 1.000
            11               -15.1040                 1.000
            12               -15.1040                 1.000
            13               -15.1040                 1.000
            14               -15.1040                 1.000
            15               -15.1040                 1.000
            16               -15.1040                 1.000
            17               -15.1040                 1.000
            18               -15.1040                 1.000
            19               -15.1040                 1.000
            20               -15.1040                 1.000
            21               -15.1040                 1.000
            22               -15.1040                 1.000
            23               -15.1040                 1.000
            24               -15.1040                 1.000
            25               -15.1040                 1.000
            26               -15.1040                 1.000
            27               -15.1040                 1.000
            28               -15.1040                 1.000
            29               -15.1040                 1.000
            30               -15.1040                 1.000
            31               -15.1040                 1.000
            32               -15.1040                 1.000
            33               -15.1040                 1.000
            34               -15.1040                 1.000
            35               -15.1040                 1.000
            36               -15.1040                 1.000
            37               -15.1040                 1.000
            38               -15.1040                 1.000
            39               -15.1040                 1.000
            40               -15.1040                 1.000
            41               -15.1040                 1.000
            42               -15.1040                 1.000
            43               -15.1040                 1.000
            44               -15.1040                 1.000
            45               -15.1040                 1.000
            46               -15.1040                 1.000
            47               -15.1040                 1.000
            48               -15.1040                 1.000
            49               -15.1040                 1.000
            50               -15.1040                 1.000
            51               -15.1040                 1.000
            52               -15.1040                 1.000
            53               -15.1040                 1.000
            54               -15.1040                 1.000
            55               -15.1040                 1.000
            56               -15.1040                 1.000
            57               -15.1040                 1.000
            58               -15.1040                 1.000

  Total time to end of fitting =     109.6829 seconds

*  Output for configuration   1                                                *

!! WARNING : No variables to optimise - single point performed

  Components of energy :

  Interatomic potentials     =          -3.12844355 eV
  Monopole - monopole (real) =          -0.01049467 eV
  Monopole - monopole (recip)=          -0.04339846 eV
  Monopole - monopole (total)=          -0.05389313 eV
  Energy shift               =         -15.10403337 eV
  Total lattice energy       =         -18.28637005 eV
  Total lattice energy       =           -1764.3552 kJ/(mole unit cells)

  Born effective charge tensors :

  Atom             x           y             z
   1 Sb    x       0.0970      0.0000      0.0000
           y       0.0000      0.0970      0.0000
           z       0.0000      0.0000      0.0970
   2 Sb    x       0.0970      0.0000      0.0000
           y       0.0000      0.0970      0.0000
           z       0.0000      0.0000      0.0970
   3 Te1   x       0.0570      0.0000      0.0000
           y       0.0000      0.0570      0.0000
           z       0.0000      0.0000      0.0570
   4 Te2   x      -0.1255      0.0000      0.0000
           y       0.0000     -0.1255      0.0000
           z       0.0000      0.0000     -0.1255
   5 Te2   x      -0.1255      0.0000      0.0000
           y       0.0000     -0.1255      0.0000
           z       0.0000      0.0000     -0.1255

  Elastic Constant Matrix: (Units=GPa)

  Indices      1         2         3         4         5         6
       1     30.9330   18.8154   23.5585   -4.3491   -1.4380   -2.4220
       2     18.8154   28.8530   15.5442    5.8442    8.9171    2.8481
       3     23.5585   15.5442   23.7174   -1.1352   -6.2400    1.6608
       4     -4.3491    5.8442   -1.1352    9.8672    1.1867    8.6356
       5     -1.4380    8.9171   -6.2400    1.1867   15.4609   -4.3581
       6     -2.4220    2.8481    1.6608    8.6356   -4.3581   10.7080

  Elastic Compliance Matrix: (Units=1/GPa)

[...]

 Mechanical properties :

  Convention :                    Reuss         Voigt         Hill
  Bulk  Modulus (GPa)     =      19.30309      22.14886      20.72598
  Shear Modulus (GPa)     =       1.11281       8.91291       5.01286
  Velocity S-wave (km/s)  =       1.34933       3.81871       2.86385
  Velocity P-wave (km/s)  =       5.83179       7.46201       6.69669
  Compressibility (1/GPa) =    0.05180517
  Stress axis :                     x             y             z
  Youngs Moduli (GPa)     =       4.12477       2.82331       2.09346
  Poissons Ratio (x)      =                     0.20606       0.39907
  Poissons Ratio (y)      =       0.30104                     0.51842
  Poissons Ratio (z)      =       0.78630       0.69916

  Piezoelectric Strain Matrix: (Units=C/m**2)

  Indices      1         2         3         4         5         6
       x     0.00246   0.02009   0.02338  -0.00302  -0.00124  -0.00209
       y    -0.00026   0.00628   0.00382   0.00547  -0.00189  -0.00580
       z    -0.00015   0.00680  -0.00081   0.00157  -0.00373  -0.00189

  Piezoelectric Stress Matrix: (Units=10**-11 C/N)

[...]

  Static dielectric constant tensor :

              x         y         z
       x     1.00833   0.00010   0.00006
       y     0.00010   1.00860   0.00014
       z     0.00006   0.00014   1.00845

  Static refractive indices :

    1 =    1.00414      2 =    1.00417      3 =    1.00435

  Time to end of properties =     109.6869 seconds

[...]

!! WARNING : No variables to optimise - single point performed

[...]

  Time to end of properties =     109.8309 seconds

*  Output for configuration  58                                                *

[...]

  Number of variables =     18

  Maximum number of calculations  =          1000
  Maximum Hessian update interval =            10
  Maximum step size               =   1.000000000
  Maximum parameter tolerance     =   0.000010000
  Maximum function  tolerance     =   0.000010000
  Maximum gradient  tolerance     =   0.001000000
  Maximum gradient  component     =   0.010000000

  Symmetry not applied to optimisation

  Cell parameters to be optimised using strains

  Newton-Raphson optimiser to be used

  BFGS hessian update to be used

  Dumpfile to be written after every cycle

  Start of bulk optimisation :

  ** Hessian calculated **

  **** Optimisation achieved ****

  Final energy =     -18.31242987 eV
  Final Gnorm  =       0.00002441

  Components of energy :

  Interatomic potentials     =          -3.18673032 eV
  Monopole - monopole (real) =          -0.00652241 eV
  Monopole - monopole (recip)=          -0.01514377 eV
  Monopole - monopole (total)=          -0.02166618 eV
  Energy shift               =         -15.10403337 eV
  Total lattice energy       =         -18.31242987 eV
  Total lattice energy       =           -1766.8696 kJ/(mole unit cells)

  Final fractional coordinates of atoms :

   No.  Atomic        x           y          z          Radius
        Label       (Frac)      (Frac)     (Frac)       (Angs)
     1  Sb    c     0.396797    0.396797    0.396797    0.000000
     2  Sb    c     0.600657    0.600657    0.600657    0.000000
     3  Te1   c     0.998727    0.998727    0.998727    0.000000
     4  Te2   c     0.784896    0.784896    0.784896    0.000000
     5  Te2   c     0.212558    0.212558    0.212558    0.000000

  Final Cartesian lattice vectors (Angstroms) :

       11.299067    0.182795    0.108528
       10.449891    4.301407    0.108528
       10.449891    2.154560    3.724481

  Final cell parameters and derivatives :

       a           11.301067 Angstrom     dE/de1(xx)     0.000055 eV/strain
       b           11.301067 Angstrom     dE/de2(yy)     0.000099 eV/strain
       c           11.301067 Angstrom     dE/de3(zz)     0.000101 eV/strain
       alpha       21.445310 Degrees      dE/de4(yz)    -0.000001 eV/strain
       beta        21.445310 Degrees      dE/de5(xz)    -0.000006 eV/strain
       gamma       21.445310 Degrees      dE/de6(xy)    -0.000010 eV/strain

  Primitive cell volume =           169.032821 Angs**3

  Density of cell =      6.152723 g/cm**3

  Non-primitive cell volume =           169.032821 Angs**3

  Final internal derivatives :

   No.  Atomic          x             y             z           Radius
        Label          (eV)          (eV)          (eV)        (eV/Angs)
      1 Sb    c       0.000000      0.000000      0.000000      0.000000
      2 Sb    c       0.000210      0.000210      0.000210      0.000000
      3 Te1   c      -0.000000     -0.000000     -0.000000      0.000000
      4 Te2   c       0.000079      0.000079      0.000079      0.000000
      5 Te2   c      -0.000079     -0.000079     -0.000079      0.000000
  Maximum abs         0.000210      0.000210      0.000210      0.000000

  Born effective charge tensors :

  Atom             x           y             z
   1 Sb    x       0.0970      0.0000      0.0000
           y       0.0000      0.0970      0.0000
           z       0.0000      0.0000      0.0970
   2 Sb    x       0.0970      0.0000      0.0000
           y       0.0000      0.0970      0.0000
           z       0.0000      0.0000      0.0970
   3 Te1   x       0.0570      0.0000      0.0000
           y       0.0000      0.0570      0.0000
           z       0.0000      0.0000      0.0570
   4 Te2   x      -0.1255      0.0000      0.0000
           y       0.0000     -0.1255      0.0000
           z       0.0000      0.0000     -0.1255
   5 Te2   x      -0.1255      0.0000      0.0000
           y       0.0000     -0.1255      0.0000
           z       0.0000      0.0000     -0.1255

  Elastic Constant Matrix: (Units=GPa)

[...]

  Elastic Compliance Matrix: (Units=1/GPa)

  Indices      1         2         3         4         5         6
       1    0.075073 -0.022679 -0.047188  0.044946 -0.010409 -0.017532
       2   -0.022679  0.113927 -0.070266 -0.065205 -0.087847  0.000799
       3   -0.047188 -0.070266  0.138890  0.019427  0.094223  0.009939
       4    0.044946 -0.065205  0.019427  0.284295 -0.023161 -0.201247
       5   -0.010409 -0.087847  0.094223 -0.023161  0.176737  0.084624
       6   -0.017532  0.000799  0.009939 -0.201247  0.084624  0.269028

 Mechanical properties :

  Convention :                    Reuss         Voigt         Hill
  Bulk  Modulus (GPa)     =      20.99860      21.83417      21.41638
  Shear Modulus (GPa)     =       3.69251       9.75803       6.72527
  Velocity S-wave (km/s)  =       2.44978       3.98242       3.30614
  Velocity P-wave (km/s)  =       6.49083       7.52551       7.02724
  Compressibility (1/GPa) =    0.04762222
  Stress axis :                     x             y             z
  Youngs Moduli (GPa)     =      13.32031       8.77755       7.19996
  Poissons Ratio (x)      =                     0.19907       0.33975
  Poissons Ratio (y)      =       0.30210                     0.50591
  Poissons Ratio (z)      =       0.62856       0.61676

  Piezoelectric Strain Matrix: (Units=C/m**2)

[...]

  Piezoelectric Stress Matrix: (Units=10**-11 C/N)

  Indices      1         2         3         4         5         6
       x    -0.00000   0.00000   0.00000  -0.00000  -0.00000  -0.00000
       y     0.00000  -0.00000   0.00000   0.00000  -0.00000  -0.00000
       z     0.00000   0.00000  -0.00000  -0.00000  -0.00000  -0.00000

  Static dielectric constant tensor :

              x         y         z
       x     1.00860  -0.00038  -0.00023
       y    -0.00038   1.01037  -0.00005
       z    -0.00023  -0.00005   1.01042

  Static refractive indices :

    1 =    1.00424      2 =    1.00521      3 =    1.00521

  Time to end of optimisation =     109.9029 seconds

  Timing analysis for GULP :

  Task / Subroutine                                          Time (Seconds)
  Calculation of reciprocal space energy and derivatives          6.5924
  Calculation of real space energy and derivatives               99.8942
  Sum of squares for fitting                                      2.4161
  Global summation overhead                                       0.1080

  Dump file written as sb2te3.res

  **** GULP has completed with  57 warnings - beware! ****

  Job Finished at 21:28.46 21st June       2010