  Job Started  at 12:52.51 21st June       2010

  Number of CPUs =     1

  Total number of configurations input =  58

*  Input for Configuration =   1                                               *

  Formula = Sb2Te3

  Number of irreducible atoms/shells =       5

  Total number atoms/shells =       5

  Dimensionality = 3               :  Bulk

  Cartesian lattice vectors (Angstroms) :

       10.739800    0.000000    0.000000
        9.863930    4.248080    0.000000
        9.863930    2.033746    3.729619

  Cell parameters (Angstroms/Degrees):

  a =      10.7398    alpha =  23.3000
  b =      10.7398    beta  =  23.3000
  c =      10.7398    gamma =  23.3000

  Initial cell volume =         170.158355 Angs**3

  Temperature of configuration =  0.000     K

  Pressure of configuration =         0.000 GPa

  Fractional coordinates of asymmetric unit :

   No.  Atomic       x           y          z         Charge      Occupancy
        Label      (Frac)      (Frac)     (Frac)        (e)         (Frac)
      1 Sb    c    0.401797    0.396797    0.396797      0.0000    1.000000
      2 Sb    c    0.603203    0.603203    0.603203      0.0000    1.000000
      3 Te1   c    0.000000    0.000000    0.000000     -0.0000    1.000000
      4 Te2   c    0.784571    0.784571    0.784571     -0.0000    1.000000
      5 Te2   c    0.215429    0.215429    0.215429     -0.0000    1.000000

[...]

*  Input for Configuration =  58                                               *

  Formula = Sb2Te3

  Number of irreducible atoms/shells =       5

  Total number atoms/shells =       5

  Dimensionality = 3               :  Bulk

  Cartesian lattice vectors (Angstroms) :

[...]

  Cell parameters (Angstroms/Degrees):

  a =      10.7398    alpha =  23.3000
  b =      10.7398    beta  =  23.3000
  c =      10.7398    gamma =  23.3000

  Initial cell volume =         170.158355 Angs**3

  Temperature of configuration =  0.000     K

  Pressure of configuration =         0.000 GPa

  Fractional coordinates of asymmetric unit :

   No.  Atomic       x           y          z         Charge      Occupancy
        Label      (Frac)      (Frac)     (Frac)        (e)         (Frac)
      1 Sb    c    0.396797    0.396797    0.396797      0.0000    1.000000
      2 Sb    c    0.603203    0.603203    0.603203      0.0000    1.000000
      3 Te1   c    0.000000    0.000000    0.000000     -0.0000    1.000000
      4 Te2   c    0.784571    0.784571    0.784571     -0.0000    1.000000
      5 Te2   c    0.215429    0.215429    0.215429     -0.0000    1.000000

*  General input information                                                   *

  Species output for all configurations :

  Species    Type    Atomic    Atomic    Charge       Radii (Angs)     Library
                     Number     Mass       (e)     Cova   Ionic  VDW   Symbol
    Sb       Core       51     121.75     0.0000   1.460  0.000  2.170
    Te1      Core       52     127.60    -0.0000   1.470  0.000  2.200
    Te2      Core       52     127.60    -0.0000   1.470  0.000  2.200

  Lattice summation method               =    Ewald
  Accuracy factor for lattice sums       =    8.000

  Time limit = Infinity

  Maximum range for interatomic potentials =         8.000000 Angstroms

  Taper potentials to zero over   8.0000 Angstroms using Voter m =  20.0000

  General interatomic potentials :

Atom  Types   Potential         A         B         C         D     Cutoffs(Ang)
  1     2                                                            Min    Max
Sb   c Te2  c Morse         0.110      4.32     3.02     0.00       0.000 12.000
Sb   c Te1  c Morse         0.720E-01  1.64     3.30     0.00       0.000 12.000
Sb   c Sb   c Morse         0.720E-01 0.940     4.29     0.00       0.000 12.000
Te1  c Te1  c Morse         0.650E-01  1.05     4.36     0.00       0.000 12.000
Te1  c Te2  c Morse         0.580E-01  1.01     4.34     0.00       0.000 12.000
Te2  c Te2  c Morse         0.680E-01  2.75     3.90     0.00       0.000 12.000
Te2  c Te2  c Morse         0.550E-01  1.12     4.30     0.00       0.000 12.000

  Energy shifts for configurations :

      Configuration           Energy (eV)        Scale Factor
             1               -12.0000                 1.000
             2               -12.0000                 1.000
             3               -12.0000                 1.000
             4               -12.0000                 1.000
             5               -12.0000                 1.000
             6               -12.0000                 1.000
             7               -12.0000                 1.000
             8               -12.0000                 1.000
             9               -12.0000                 1.000
            10               -12.0000                 1.000
            11               -12.0000                 1.000
            12               -12.0000                 1.000
            13               -12.0000                 1.000
            14               -12.0000                 1.000
            15               -12.0000                 1.000
            16               -12.0000                 1.000
            17               -12.0000                 1.000
            18               -12.0000                 1.000
            19               -12.0000                 1.000
            20               -12.0000                 1.000
            21               -12.0000                 1.000
            22               -12.0000                 1.000
            23               -12.0000                 1.000
            24               -12.0000                 1.000
            25               -12.0000                 1.000
            26               -12.0000                 1.000
            27               -12.0000                 1.000
            28               -12.0000                 1.000
            29               -12.0000                 1.000
            30               -12.0000                 1.000
            31               -12.0000                 1.000
            32               -12.0000                 1.000
            33               -12.0000                 1.000
            34               -12.0000                 1.000
            35               -12.0000                 1.000
            36               -12.0000                 1.000
            37               -12.0000                 1.000
            38               -12.0000                 1.000
            39               -12.0000                 1.000
            40               -12.0000                 1.000
            41               -12.0000                 1.000
            42               -12.0000                 1.000
            43               -12.0000                 1.000
            44               -12.0000                 1.000
            45               -12.0000                 1.000
            46               -12.0000                 1.000
            47               -12.0000                 1.000
            48               -12.0000                 1.000
            49               -12.0000                 1.000
            50               -12.0000                 1.000
            51               -12.0000                 1.000
            52               -12.0000                 1.000
            53               -12.0000                 1.000
            54               -12.0000                 1.000
            55               -12.0000                 1.000
            56               -12.0000                 1.000
            57               -12.0000                 1.000
            58               -12.0000                 1.000

!! WARNING : Fitted parameter initially set to zero

!! WARNING : Fitted parameter initially set to zero

  Number of variables   =   24
  Number of observables =   74

   Observable no.  Type           Observable    Weight       Reference  Confign
          1        Energy          -18.310000        0.5000                1
          2        Energy          -18.280000        0.5000                2
          3        Energy          -18.230000        0.5000                3
          4        Energy          -18.160000        0.5000                4
          5        Energy          -18.070000        0.5000                5
          6        Energy          -18.310000        0.5000                6
          7        Energy          -18.280000        0.5000                7
          8        Energy          -18.230000        0.5000                8
          9        Energy          -18.160000        0.5000                9
         10        Energy          -18.070000        0.5000               10
         11        Energy          -18.310000        0.5000               11
         12        Energy          -18.280000        0.5000               12
         13        Energy          -18.230000        0.5000               13
         14        Energy          -18.160000        0.5000               14
         15        Energy          -18.070000        0.5000               15
         16        Energy          -18.310000        0.5000               16
         17        Energy          -18.300000        0.5000               17
         18        Energy          -18.260000        0.5000               18
         19        Energy          -18.220000        0.5000               19
         20        Energy          -18.160000        0.5000               20
         21        Energy          -18.310000        0.5000               21
         22        Energy          -18.300000        0.5000               22
         23        Energy          -18.260000        0.5000               23
         24        Energy          -18.220000        0.5000               24
         25        Energy          -18.160000        0.5000               25
         26        Energy          -18.310000        0.5000               26
         27        Energy          -18.300000        0.5000               27
         28        Energy          -18.260000        0.5000               28
         29        Energy          -18.220000        0.5000               29
         30        Energy          -18.160000        0.5000               30
         31        Energy          -18.310000        0.5000               31
         32        Energy          -18.290000        0.5000               32
         33        Energy          -18.260000        0.5000               33
         34        Energy          -18.210000        0.5000               34
         35        Energy          -18.150000        0.5000               35
         36        Energy          -18.310000        0.5000               36
         37        Energy          -18.290000        0.5000               37
         38        Energy          -18.260000        0.5000               38
         39        Energy          -18.210000        0.5000               39
         40        Energy          -18.150000        0.5000               40
         41        Energy          -18.310000        0.5000               41
         42        Energy          -18.290000        0.5000               42
[...]
         48        Energy           -17.91000    -15.10012    -16.62013
         49        Energy           -18.23000    -15.30405    -16.90724
         50        Energy           -18.32000    -15.27439    -16.77170
         51        Energy           -18.24000    -15.12654    -16.47742
         52        Energy           -18.01000    -14.92614    -16.14461
         53        Energy           -17.66000    -14.70816    -15.82278
         54        Energy           -17.23000    -14.49014    -15.52844
         55        Energy           -16.72000    -14.27988    -15.26375
         56        Energy           -16.16000    -14.08193    -15.02734
         57        Energy           -18.31000    -15.27439    -16.77170
         58        Elastic Const     64.99800     34.14870     43.17634
         59        Elastic Const     64.99800     28.73887     42.30101
         60        Elastic Const     15.38046     15.05455     17.44883
         61        Elastic Const     11.74897     20.50525     24.38273
         62        Elastic Const     11.75000     11.99722     15.18402
         63        Elastic Const     15.30000     15.05455     17.44883
         64        Elastic Const     11.70000     20.50525     24.38273
         65        Elastic Const     11.70000     11.99722     15.18402
         66        Elastic Const     24.80883     12.15873     18.51959
         67        Elastic Const     11.80193     19.49021     26.15189
         68        Elastic Const     11.80193     14.00569     19.17296
         69        Derivative         0.00000      1.44021      3.12560
         70        Derivative         0.00000      1.84155      4.49772
         71        Derivative         0.00000      1.85308      4.53716
         72        Derivative         0.00000     -0.01058     -0.03617
         73        Derivative         0.00000     -0.05131     -0.17542
         74        Derivative         0.00000     -0.08642     -0.29546

  Maximum range for interatomic potentials =         8.000000 Angstroms

  Taper potentials to zero over   8.0000 Angstroms using Voter m =  20.0000

  General interatomic potentials :

Atom  Types   Potential         A         B         C         D     Cutoffs(Ang)
  1     2                                                            Min    Max
Sb   c Te2  c Morse         0.209      5.67     2.97     0.00       0.000 12.000
Sb   c Te1  c Morse         0.954E-01  1.60     3.29     0.00       0.000 12.000
Sb   c Sb   c Morse         0.785E-01 0.916     4.30     0.00       0.000 12.000
Te1  c Te1  c Morse         0.640E-01  1.04     4.35     0.00       0.000 12.000
Te1  c Te2  c Morse         0.648E-01 0.986     4.34     0.00       0.000 12.000
Te2  c Te2  c Morse         0.668E-01  2.76     3.99     0.00       0.000 12.000
Te2  c Te2  c Morse         0.543E-01  1.13     4.36     0.00       0.000 12.000

  Energy shifts for configurations :

      Configuration           Energy (eV)        Scale Factor
             1               -12.6996                 1.000
             2               -12.6996                 1.000
             3               -12.6996                 1.000
             4               -12.6996                 1.000
             5               -12.6996                 1.000
             6               -12.6996                 1.000
             7               -12.6996                 1.000
             8               -12.6996                 1.000
             9               -12.6996                 1.000
            10               -12.6996                 1.000
            11               -12.6996                 1.000
            12               -12.6996                 1.000
            13               -12.6996                 1.000
            14               -12.6996                 1.000
            15               -12.6996                 1.000
            16               -12.6996                 1.000
            17               -12.6996                 1.000
            18               -12.6996                 1.000
            19               -12.6996                 1.000
            20               -12.6996                 1.000
            21               -12.6996                 1.000
            22               -12.6996                 1.000
            23               -12.6996                 1.000
            24               -12.6996                 1.000
            25               -12.6996                 1.000
            26               -12.6996                 1.000
            27               -12.6996                 1.000
            28               -12.6996                 1.000
            29               -12.6996                 1.000
            30               -12.6996                 1.000
            31               -12.6996                 1.000
            32               -12.6996                 1.000
            33               -12.6996                 1.000
            34               -12.6996                 1.000
            35               -12.6996                 1.000
            36               -12.6996                 1.000
            37               -12.6996                 1.000
            38               -12.6996                 1.000
            39               -12.6996                 1.000
            40               -12.6996                 1.000
            41               -12.6996                 1.000
            42               -12.6996                 1.000
            43               -12.6996                 1.000
            44               -12.6996                 1.000
            45               -12.6996                 1.000
            46               -12.6996                 1.000
            47               -12.6996                 1.000
            48               -12.6996                 1.000
            49               -12.6996                 1.000
            50               -12.6996                 1.000
            51               -12.6996                 1.000
            52               -12.6996                 1.000
            53               -12.6996                 1.000
            54               -12.6996                 1.000
            55               -12.6996                 1.000
            56               -12.6996                 1.000
            57               -12.6996                 1.000
            58               -12.6996                 1.000

  Total time to end of fitting =     540.0377 seconds

*  Output for configuration   1                                                *

!! WARNING : No variables to optimise - single point performed

  Components of energy :

  Interatomic potentials     =          -4.04015787 eV
  Monopole - monopole (real) =          -0.01534655 eV
  Monopole - monopole (recip)=          -0.05368094 eV
  Monopole - monopole (total)=          -0.06902749 eV
  Energy shift               =         -12.69958583 eV
  Total lattice energy       =         -16.80877119 eV
  Total lattice energy       =           -1621.7895 kJ/(mole unit cells)

  Born effective charge tensors :

  Atom             x           y             z
   1 Sb    x       0.1015      0.0000      0.0000
           y       0.0000      0.1015      0.0000
           z       0.0000      0.0000      0.1015
   2 Sb    x       0.1015      0.0000      0.0000
           y       0.0000      0.1015      0.0000
           z       0.0000      0.0000      0.1015
   3 Te1   x       0.0368      0.0000      0.0000
           y       0.0000      0.0368      0.0000
           z       0.0000      0.0000      0.0368
   4 Te2   x      -0.1199      0.0000      0.0000
           y       0.0000     -0.1199      0.0000
           z       0.0000      0.0000     -0.1199
   5 Te2   x      -0.1199      0.0000      0.0000
           y       0.0000     -0.1199      0.0000
           z       0.0000      0.0000     -0.1199

  Elastic Constant Matrix: (Units=GPa)

  Indices      1         2         3         4         5         6
       1     42.1887   17.7160   24.3719   -6.1030   -1.8834   -3.1722
       2     17.7160   41.0315   15.0891    8.2873   12.4616    3.5351
       3     24.3719   15.0891   33.8632   -1.7144   -9.2130    1.9367
       4     -6.1030    8.2873   -1.7144   17.6231    1.6451   12.2885
       5     -1.8834   12.4616   -9.2130    1.6451   25.1229   -6.0238
       6     -3.1722    3.5351    1.9367   12.2885   -6.0238   18.5535

  Elastic Compliance Matrix: (Units=1/GPa)

[...]

 Mechanical properties :

  Convention :                    Reuss         Voigt         Hill
  Bulk  Modulus (GPa)     =      24.97612      25.71525      25.34569
  Shear Modulus (GPa)     =       7.26750      16.25365      11.76058
  Velocity S-wave (km/s)  =       3.44826       5.15683       4.38654
  Velocity P-wave (km/s)  =       7.53113       8.80514       8.19293
  Compressibility (1/GPa) =    0.04003825
  Stress axis :                     x             y             z
  Youngs Moduli (GPa)     =      20.33338      16.77121      13.87223
  Poissons Ratio (x)      =                     0.25957       0.38049
  Poissons Ratio (y)      =       0.31470                     0.38180
  Poissons Ratio (z)      =       0.55771       0.46158

  Piezoelectric Strain Matrix: (Units=C/m**2)

  Indices      1         2         3         4         5         6
       x     0.02165   0.04156   0.05257  -0.01010  -0.00434  -0.00730
       y    -0.00274   0.01036   0.00751   0.02233  -0.00747   0.00559
       z    -0.00163   0.02503  -0.01442   0.00296   0.01374  -0.00747

  Piezoelectric Stress Matrix: (Units=10**-11 C/N)

[...]

  Static dielectric constant tensor :

              x         y         z
       x     1.00587   0.00013   0.00008
       y     0.00013   1.00636   0.00021
       z     0.00008   0.00021   1.00614

  Static refractive indices :

    1 =    1.00291      2 =    1.00300      3 =    1.00325

  Time to end of properties =     540.0417 seconds

[...]

!! WARNING : No variables to optimise - single point performed

[...]

  Time to end of properties =     540.1898 seconds

*  Output for configuration  58                                                *

[...]

  Number of variables =      6

  Maximum number of calculations  =          1000
  Maximum Hessian update interval =            10
  Maximum step size               =   1.000000000
  Maximum parameter tolerance     =   0.000010000
  Maximum function  tolerance     =   0.000010000
  Maximum gradient  tolerance     =   0.001000000
  Maximum gradient  component     =   0.010000000

  Symmetry not applied to optimisation

  Cell parameters to be optimised using strains

  Newton-Raphson optimiser to be used

  BFGS hessian update to be used

  Dumpfile to be written after every cycle

  Start of bulk optimisation :

  ** Hessian calculated **

  **** Optimisation achieved ****

  Final energy =     -16.96864603 eV
  Final Gnorm  =       0.00010262

  Components of energy :

  Interatomic potentials     =          -4.22557586 eV
  Monopole - monopole (real) =          -0.01250095 eV
  Monopole - monopole (recip)=          -0.03098339 eV
  Monopole - monopole (total)=          -0.04348434 eV
  Energy shift               =         -12.69958583 eV
  Total lattice energy       =         -16.96864603 eV
  Total lattice energy       =           -1637.2150 kJ/(mole unit cells)

  Final fractional coordinates of atoms :

   No.  Atomic        x           y          z          Radius
        Label       (Frac)      (Frac)     (Frac)       (Angs)
     1  Sb    c     0.396797    0.396797    0.396797    0.000000
     2  Sb    c     0.603203    0.603203    0.603203    0.000000
     3  Te1   c     0.000000    0.000000    0.000000    0.000000
     4  Te2   c     0.784571    0.784571    0.784571    0.000000
     5  Te2   c     0.215429    0.215429    0.215429    0.000000

  Final Cartesian lattice vectors (Angstroms) :

       11.107553    0.185576    0.110179
       10.275095    4.223101    0.110179
       10.275095    2.118520    3.654941

  Final cell parameters and derivatives :

       a           11.109649 Angstrom     dE/de1(xx)    -0.000423 eV/strain
       b           11.109649 Angstrom     dE/de2(yy)    -0.000318 eV/strain
       c           11.109649 Angstrom     dE/de3(zz)    -0.000315 eV/strain
       alpha       21.384610 Degrees      dE/de4(yz)    -0.000003 eV/strain
       beta        21.384610 Degrees      dE/de5(xz)    -0.000013 eV/strain
       gamma       21.384610 Degrees      dE/de6(xy)    -0.000023 eV/strain

  Primitive cell volume =           159.712607 Angs**3

  Density of cell =      6.511772 g/cm**3

  Non-primitive cell volume =           159.712607 Angs**3

  Final internal derivatives :

   No.  Atomic          x             y             z           Radius
        Label          (eV)          (eV)          (eV)        (eV/Angs)
      1 Sb    c       0.000000      0.000000      0.000000      0.000000
      2 Sb    c       0.000000      0.000000      0.000000      0.000000
      3 Te1   c       0.000000      0.000000      0.000000      0.000000
      4 Te2   c       0.000000      0.000000      0.000000      0.000000
      5 Te2   c       0.000000      0.000000      0.000000      0.000000
  Maximum abs         0.000000      0.000000      0.000000      0.000000

  Born effective charge tensors :

  Atom             x           y             z
   1 Sb    x       0.1015      0.0000      0.0000
           y       0.0000      0.1015      0.0000
           z       0.0000      0.0000      0.1015
   2 Sb    x       0.1015      0.0000      0.0000
           y       0.0000      0.1015      0.0000
           z       0.0000      0.0000      0.1015
   3 Te1   x       0.0368      0.0000      0.0000
           y       0.0000      0.0368      0.0000
           z       0.0000      0.0000      0.0368
   4 Te2   x      -0.1199      0.0000      0.0000
           y       0.0000     -0.1199      0.0000
           z       0.0000      0.0000     -0.1199
   5 Te2   x      -0.1199      0.0000      0.0000
           y       0.0000     -0.1199      0.0000
           z       0.0000      0.0000     -0.1199

  Elastic Constant Matrix: (Units=GPa)

[...]

  Elastic Compliance Matrix: (Units=1/GPa)

  Indices      1         2         3         4         5         6
       1    0.030494 -0.008800 -0.016345  0.013836 -0.001762 -0.002968
       2   -0.008800  0.039516 -0.020685 -0.019780 -0.027066 -0.000917
       3   -0.016345 -0.020685  0.047196  0.005697  0.027631  0.001869
       4    0.013836 -0.019780  0.005697  0.095252 -0.007000 -0.060508
       5   -0.001762 -0.027066  0.027631 -0.007000  0.062743  0.026358
       6   -0.002968 -0.000917  0.001869 -0.060508  0.026358  0.091489

 Mechanical properties :

  Convention :                    Reuss         Voigt         Hill
  Bulk  Modulus (GPa)     =      39.14290      39.76846      39.45568
  Shear Modulus (GPa)     =      10.70975      21.25753      15.98364
  Velocity S-wave (km/s)  =       4.05546       5.71356       4.95437
  Velocity P-wave (km/s)  =       9.05759      10.22732       9.66018
  Compressibility (1/GPa) =    0.02554742
  Stress axis :                     x             y             z
  Youngs Moduli (GPa)     =      32.79314      25.30610      21.18839
  Poissons Ratio (x)      =                     0.22269       0.34632
  Poissons Ratio (y)      =       0.28858                     0.43827
  Poissons Ratio (z)      =       0.53600       0.52344

  Piezoelectric Strain Matrix: (Units=C/m**2)

[...]

  Piezoelectric Stress Matrix: (Units=10**-11 C/N)

  Indices      1         2         3         4         5         6
       x     0.00000   0.00000   0.00000  -0.00000  -0.00000  -0.00000
       y    -0.00000   0.00000   0.00000   0.00000  -0.00000   0.00000
       z    -0.00000   0.00000   0.00000   0.00000   0.00000  -0.00000

  Static dielectric constant tensor :

              x         y         z
       x     1.00268  -0.00014  -0.00009
       y    -0.00014   1.00335  -0.00002
       z    -0.00009  -0.00002   1.00337

  Static refractive indices :

    1 =    1.00132      2 =    1.00169      3 =    1.00169

  Time to end of optimisation =     540.2778 seconds

  Timing analysis for GULP :

  Task / Subroutine                                          Time (Seconds)
  Calculation of reciprocal space energy and derivatives         31.8380
  Calculation of real space energy and derivatives              492.9188
  Sum of squares for fitting                                     11.8008
  Global summation overhead                                       0.4680

  Dump file written as sb2te3.res

  **** GULP has completed with  59 warnings - beware! ****

  Job Finished at 13:01.52 21st June       2010