  Job Started  at 15:36.43  2nd June       2010

  Number of CPUs =     1

  Total number of configurations input =  73

*  Input for Configuration =   1                                               *

  Formula = Te3Bi2

  Number of irreducible atoms/shells =       5

  Total number atoms/shells =       5

  Dimensionality = 3               :  Bulk

  Cartesian lattice vectors (Angstroms) :

       10.268280    0.000000    0.000000
        9.344146    4.257289    0.000000
        9.344146    2.028343    3.743038

  Cell parameters (Angstroms/Degrees):

  a =      10.2683    alpha =  24.4945
  b =      10.2683    beta  =  24.4945
  c =      10.2683    gamma =  24.4945

  Initial cell volume =         163.627070 Angs**3

  Temperature of configuration =  0.000     K

  Pressure of configuration =         0.000 GPa

  Fractional coordinates of asymmetric unit :

   No.  Atomic       x           y          z         Charge      Occupancy
        Label      (Frac)      (Frac)     (Frac)        (e)         (Frac)
      1 Te2   c    0.000000    0.000000    0.000000     -0.2400    1.000000
      2 Te1   c    0.208837    0.208837    0.208837     -0.2600    1.000000
      3 Bi    c    0.400389    0.400389    0.400389      0.3800    1.000000
      4 Bi    c    0.599611    0.599611    0.599611      0.3800    1.000000
      5 Te1   c    0.791163    0.791163    0.791163     -0.2600    1.000000

[...]

*  Input for Configuration =  73                                               *

  Formula = Te3Bi2

  Number of irreducible atoms/shells =       5

  Total number atoms/shells =       5

  Dimensionality = 3               :  Bulk

  Cartesian lattice vectors (Angstroms) :

       10.225900    0.000000    0.000000
        9.305580    4.239718    0.000000
        9.305580    2.019972    3.727590

  Cell parameters (Angstroms/Degrees):

  a =      10.2259    alpha =  24.4945
  b =      10.2259    beta  =  24.4945
  c =      10.2259    gamma =  24.4945

  Initial cell volume =         161.609419 Angs**3

  Temperature of configuration =  0.000     K

  Pressure of configuration =         0.000 GPa

  Fractional coordinates of asymmetric unit :

   No.  Atomic       x           y          z         Charge      Occupancy
        Label      (Frac)      (Frac)     (Frac)        (e)         (Frac)
      1 Te2   c    0.000000    0.000000    0.000000     -0.2400    1.000000
      2 Te1   c    0.208837    0.208837    0.208837     -0.2600    1.000000
      3 Bi    c    0.400389    0.400389    0.400389      0.3800    1.000000
      4 Bi    c    0.599611    0.599611    0.599611      0.3800    1.000000
      5 Te1   c    0.791163    0.791163    0.791163     -0.2600    1.000000

*  General input information                                                   *

  Species output for all configurations :

  Species    Type    Atomic    Atomic    Charge       Radii (Angs)     Library
                     Number     Mass       (e)     Cova   Ionic  VDW   Symbol
    Te2      Core       52     127.60    -0.2400   1.470  0.000  2.200
    Te1      Core       52     127.60    -0.2600   1.470  0.000  2.200
    Bi       Core       83     208.98     0.3800   1.540  0.000  2.300

  Lattice summation method               =    Ewald
  Accuracy factor for lattice sums       =    8.000

  Time limit = Infinity

  Maximum range for interatomic potentials =    100000.000000 Angstroms

  General interatomic potentials :

Atom  Types   Potential         A         B         C         D     Cutoffs(Ang)
  1     2                                                            Min    Max
Te1  c Bi   c Morse         0.974      1.28     3.10     0.00       0.000  4.000
Te2  c Bi   c Morse         0.580      1.25     3.23     0.00       0.000  4.000
Te1  c Te1  c Morse         0.691E-01  2.17     3.64     0.00       0.000  5.000
Bi   c Bi   c Morse         0.850E-01  1.93     4.18     0.00       0.000  5.500
Te2  c Te2  c Morse         0.660E-01  2.00     4.00     0.00       0.000  5.000
Te1  c Te2  c Morse         0.800      1.30     4.50     0.00       0.000  5.500

  Energy shifts for configurations :

      Configuration           Energy (eV)        Scale Factor
             1                1.00000                 1.000
             2                1.00000                 1.000
             3                1.00000                 1.000
             4                1.00000                 1.000
             5                1.00000                 1.000
             6                1.00000                 1.000
             7                1.00000                 1.000
             8                1.00000                 1.000
             9                1.00000                 1.000
            10                1.00000                 1.000
            11                1.00000                 1.000
            12                1.00000                 1.000
            13                1.00000                 1.000
            14                1.00000                 1.000
            15                1.00000                 1.000
            16                1.00000                 1.000
            17                1.00000                 1.000
            18                1.00000                 1.000
            19                1.00000                 1.000
            20                1.00000                 1.000
            21                1.00000                 1.000
            22                1.00000                 1.000
            23                1.00000                 1.000
            24                1.00000                 1.000
            25                1.00000                 1.000
            26                1.00000                 1.000
            27                1.00000                 1.000
            28                1.00000                 1.000
            29                1.00000                 1.000
            30                1.00000                 1.000
            31                1.00000                 1.000
            32                1.00000                 1.000
            33                1.00000                 1.000
            34                1.00000                 1.000
            35                1.00000                 1.000
            36                1.00000                 1.000
            37                1.00000                 1.000
            38                1.00000                 1.000
            39                1.00000                 1.000
            40                1.00000                 1.000
            41                1.00000                 1.000
            42                1.00000                 1.000
            43                1.00000                 1.000
            44                1.00000                 1.000
            45                1.00000                 1.000
            46                1.00000                 1.000
            47                1.00000                 1.000
            48                1.00000                 1.000
            49                1.00000                 1.000
            50                1.00000                 1.000
            51                1.00000                 1.000
            52                1.00000                 1.000
            53                1.00000                 1.000
            54                1.00000                 1.000
            55                1.00000                 1.000
            56                1.00000                 1.000
            57                1.00000                 1.000
            58                1.00000                 1.000
            59                1.00000                 1.000
            60                1.00000                 1.000
            61                1.00000                 1.000
            62                1.00000                 1.000
            63                1.00000                 1.000
            64                1.00000                 1.000
            65                1.00000                 1.000
            66                1.00000                 1.000
            67                1.00000                 1.000
            68                1.00000                 1.000
            69                1.00000                 1.000
            70                1.00000                 1.000
            71                1.00000                 1.000
            72                1.00000                 1.000
            73                1.00000                 1.000

  Number of variables   =    7
  Number of observables =   73

   Observable no.  Type           Observable    Weight       Reference  Confign
          1        Energy           -0.653849      100.0000                1
          2        Energy           -0.653714      100.0000                2
          3        Energy           -0.653000      100.0000                3
          4        Energy           -0.651701      100.0000                4
          5        Energy           -0.649812      100.0000                5
          6        Energy           -0.647328      100.0000                6
          7        Energy           -0.644245      100.0000                7
          8        Energy           -0.640557      100.0000                8
          9        Energy           -0.636262      100.0000                9
         10        Energy           -0.631354      100.0000               10
         11        Energy           -0.653343      100.0000               11
         12        Energy           -0.652108      100.0000               12
         13        Energy           -0.650142      100.0000               13
         14        Energy           -0.647441      100.0000               14
         15        Energy           -0.644006      100.0000               15
         16        Energy           -0.639834      100.0000               16
         17        Energy           -0.634924      100.0000               17
         18        Energy           -0.629275      100.0000               18
         19        Energy           -0.622886      100.0000               19
         20        Energy           -0.625831      100.0000               20
         21        Energy           -0.615755      100.0000               21
         22        Energy           -0.653196      100.0000               22
         23        Energy           -0.651204      100.0000               23
         24        Energy           -0.647861      100.0000               24
         25        Energy           -0.643156      100.0000               25
         26        Energy           -0.637079      100.0000               26
         27        Energy           -0.629621      100.0000               27
         28        Energy           -0.620773      100.0000               28
         29        Energy           -0.652916      100.0000               29
         30        Energy           -0.650715      100.0000               30
         31        Energy           -0.647250      100.0000               31
         32        Energy           -0.642530      100.0000               32
[...]
         17        Energy            -0.63492     -0.62732      0.00579    1.198
         18        Energy            -0.62927     -0.62077      0.00723    1.351
         19        Energy            -0.62289     -0.61361      0.00860    1.489
         20        Energy            -0.62583     -0.62929      0.00120   -0.553
         21        Energy            -0.61576     -0.60584      0.00984    1.611
         22        Energy            -0.65320     -0.65352      0.00001   -0.050
         23        Energy            -0.65120     -0.64988      0.00017    0.203
         24        Energy            -0.64786     -0.64506      0.00078    0.432
         25        Energy            -0.64316     -0.63905      0.00169    0.638
         26        Energy            -0.63708     -0.63185      0.00273    0.820
         27        Energy            -0.62962     -0.62347      0.00378    0.976
         28        Energy            -0.62077     -0.61391      0.00471    1.106
         29        Energy            -0.65292     -0.65334      0.00002   -0.066
         30        Energy            -0.65071     -0.64957      0.00013    0.175
         31        Energy            -0.64725     -0.64465      0.00068    0.401
         32        Energy            -0.64253     -0.63858      0.00156    0.615
         33        Energy            -0.63656     -0.63135      0.00272    0.819
         34        Energy            -0.62935     -0.62297      0.00408    1.015
         35        Energy            -0.62091     -0.61342      0.00561    1.206
         36        Energy            -0.65320     -0.65352      0.00001   -0.049
         37        Energy            -0.65122     -0.64988      0.00018    0.206
         38        Energy            -0.64791     -0.64506      0.00081    0.440
         39        Energy            -0.64325     -0.63905      0.00176    0.653
         40        Energy            -0.63723     -0.63185      0.00288    0.843
         41        Energy            -0.62984     -0.62347      0.00405    1.010
         42        Energy            -0.62107     -0.61391      0.00513    1.153
         43        Energy            -0.65349     -0.65745      0.00156   -0.605
         44        Energy            -0.65185     -0.65779      0.00353   -0.911
         45        Energy            -0.64890     -0.65698      0.00653   -1.246
         46        Energy            -0.64464     -0.65504      0.01081   -1.613
         47        Energy            -0.58581     -0.57809      0.00595    1.317
         48        Energy            -0.59189     -0.61950      0.07622   -4.664
         49        Energy            -0.58644     -0.57809      0.00696    1.422
         50        Energy            -0.65331     -0.65558      0.00051   -0.347
         51        Energy            -0.65171     -0.65441      0.00073   -0.415
         52        Energy            -0.64903     -0.65246      0.00118   -0.529
         53        Energy            -0.64528     -0.64974      0.00198   -0.690
         54        Energy            -0.64047     -0.64623      0.00332   -0.900
         55        Energy            -0.65269     -0.65145      0.00015    0.191
         56        Energy            -0.64979     -0.64570      0.00167    0.628
         57        Energy            -0.64513     -0.63874      0.00408    0.990
         58        Energy            -0.63871     -0.63055      0.00667    1.279
         59        Energy            -0.63054     -0.62113      0.00886    1.493
         60        Energy            -0.64703     -0.65215      0.00262   -0.791
         61        Energy            -0.62727     -0.63863      0.01291   -1.811
         62        Energy            -0.59527     -0.61613      0.04355   -3.506
         63        Energy            -0.64700     -0.64935      0.00055   -0.363
         64        Energy            -0.62572     -0.63148      0.00332   -0.921
         65        Energy            -0.58922     -0.60153      0.01514   -2.089
         66        Energy            -0.65356     -0.65602      0.00061   -0.377
         67        Energy            -0.65272     -0.65566      0.00086   -0.450
         68        Energy            -0.65135     -0.65489      0.00125   -0.543
         69        Energy            -0.64945     -0.65372      0.00182   -0.656
         70        Energy            -0.65360     -0.65551      0.00036   -0.292
         71        Energy            -0.65279     -0.65462      0.00033   -0.279
         72        Energy            -0.65143     -0.65329      0.00035   -0.287
         73        Energy            -0.64950     -0.65153      0.00041   -0.314

  Comparison of initial and final observables :

   Observable no.  Type            Observable   Initial       Final
          1        Energy            -0.65385    -15.81790     -0.65597
          2        Energy            -0.65371    -15.81754     -0.65579
          3        Energy            -0.65300    -15.81604     -0.65505
          4        Energy            -0.65170    -15.81337     -0.65376
          5        Energy            -0.64981    -15.80952     -0.65192
          6        Energy            -0.64733    -15.80446     -0.64953
          7        Energy            -0.64424    -15.79819     -0.64658
          8        Energy            -0.64056    -15.79069     -0.64308
          9        Energy            -0.63626    -15.78192     -0.63904
         10        Energy            -0.63135    -15.77188     -0.63444
         11        Energy            -0.65334    -15.81564     -0.65371
         12        Energy            -0.65211    -15.81278     -0.65084
         13        Energy            -0.65014    -15.80929     -0.64736
         14        Energy            -0.64744    -15.80520     -0.64327
         15        Energy            -0.64401    -15.80050     -0.63856
         16        Energy            -0.63983    -15.79518     -0.63325
         17        Energy            -0.63492    -15.78925     -0.62732
         18        Energy            -0.62927    -15.78271     -0.62077
         19        Energy            -0.62289    -15.77555     -0.61361
         20        Energy            -0.62583    -15.76054     -0.62929
         21        Energy            -0.61576    -15.76777     -0.60584
         22        Energy            -0.65320    -15.81527     -0.65352
         23        Energy            -0.65120    -15.81087     -0.64988
         24        Energy            -0.64786    -15.80466     -0.64506
         25        Energy            -0.64316    -15.79664     -0.63905
         26        Energy            -0.63708    -15.78679     -0.63185
         27        Energy            -0.62962    -15.77509     -0.62347
         28        Energy            -0.62077    -15.76151     -0.61391
         29        Energy            -0.65292    -15.81488     -0.65334
         30        Energy            -0.65071    -15.81016     -0.64957
         31        Energy            -0.64725    -15.80375     -0.64465
         32        Energy            -0.64253    -15.79566     -0.63858
         33        Energy            -0.63656    -15.78591     -0.63135
         34        Energy            -0.62935    -15.77451     -0.62297
         35        Energy            -0.62091    -15.76147     -0.61342
         36        Energy            -0.65320    -15.81527     -0.65352
         37        Energy            -0.65122    -15.81087     -0.64988
         38        Energy            -0.64791    -15.80466     -0.64506
         39        Energy            -0.64325    -15.79664     -0.63905
         40        Energy            -0.63723    -15.78679     -0.63185
         41        Energy            -0.62984    -15.77509     -0.62347
         42        Energy            -0.62107    -15.76151     -0.61391
         43        Energy            -0.65349    -15.81920     -0.65745
         44        Energy            -0.65185    -15.81877     -0.65779
         45        Energy            -0.64890    -15.81658     -0.65698
         46        Energy            -0.64464    -15.81263     -0.65504
         47        Energy            -0.58581    -15.70934     -0.57809
         48        Energy            -0.59189    -15.75075     -0.61950
         49        Energy            -0.58644    -15.70934     -0.57809
         50        Energy            -0.65331    -15.81694     -0.65558
         51        Energy            -0.65171    -15.81405     -0.65441
         52        Energy            -0.64903    -15.80923     -0.65246
         53        Energy            -0.64528    -15.80248     -0.64974
         54        Energy            -0.64047    -15.79379     -0.64623
         55        Energy            -0.65269    -15.81338     -0.65145
         56        Energy            -0.64979    -15.80764     -0.64570
         57        Energy            -0.64513    -15.80067     -0.63874
         58        Energy            -0.63871    -15.79248     -0.63055
         59        Energy            -0.63054    -15.78307     -0.62113
         60        Energy            -0.64703    -15.80470     -0.65215
         61        Energy            -0.62727    -15.77369     -0.63863
         62        Energy            -0.59527    -15.72635     -0.61613
         63        Energy            -0.64700    -15.81176     -0.64935
         64        Energy            -0.62572    -15.78461     -0.63148
         65        Energy            -0.58922    -15.73470     -0.60153
         66        Energy            -0.65356    -15.81676     -0.65602
         67        Energy            -0.65272    -15.81487     -0.65566
         68        Energy            -0.65135    -15.81221     -0.65489
         69        Energy            -0.64945    -15.80882     -0.65372
         70        Energy            -0.65360    -15.81827     -0.65551
         71        Energy            -0.65279    -15.81786     -0.65462
         72        Energy            -0.65143    -15.81664     -0.65329
         73        Energy            -0.64950    -15.81460     -0.65153

  Maximum range for interatomic potentials =    100000.000000 Angstroms

  General interatomic potentials :

Atom  Types   Potential         A         B         C         D     Cutoffs(Ang)
  1     2                                                            Min    Max
Te1  c Bi   c Morse         0.974      1.28     3.10     0.00       0.000  4.000
Te2  c Bi   c Morse         0.580      1.25     3.23     0.00       0.000  4.000
Te1  c Te1  c Morse         0.691E-01  2.17     3.64     0.00       0.000  5.000
Bi   c Bi   c Morse         0.850E-01  1.93     4.18     0.00       0.000  5.500
Te2  c Te2  c Morse          6.97      11.0     .418     0.00       0.000  5.000
Te1  c Te2  c Morse         0.102E-01 0.471     6.37     0.00       0.000  5.500

  Energy shifts for configurations :

      Configuration           Energy (eV)        Scale Factor
             1                11.1524                 1.000
             2                11.1524                 1.000
             3                11.1524                 1.000
             4                11.1524                 1.000
             5                11.1524                 1.000
             6                11.1524                 1.000
             7                11.1524                 1.000
             8                11.1524                 1.000
             9                11.1524                 1.000
            10                11.1524                 1.000
            11                11.1524                 1.000
            12                11.1524                 1.000
            13                11.1524                 1.000
            14                11.1524                 1.000
            15                11.1524                 1.000
            16                11.1524                 1.000
            17                11.1524                 1.000
            18                11.1524                 1.000
            19                11.1524                 1.000
            20                11.1524                 1.000
            21                11.1524                 1.000
            22                11.1524                 1.000
            23                11.1524                 1.000
            24                11.1524                 1.000
            25                11.1524                 1.000
            26                11.1524                 1.000
            27                11.1524                 1.000
            28                11.1524                 1.000
            29                11.1524                 1.000
            30                11.1524                 1.000
            31                11.1524                 1.000
            32                11.1524                 1.000
            33                11.1524                 1.000
            34                11.1524                 1.000
            35                11.1524                 1.000
            36                11.1524                 1.000
            37                11.1524                 1.000
            38                11.1524                 1.000
            39                11.1524                 1.000
            40                11.1524                 1.000
            41                11.1524                 1.000
            42                11.1524                 1.000
            43                11.1524                 1.000
            44                11.1524                 1.000
            45                11.1524                 1.000
            46                11.1524                 1.000
            47                11.1524                 1.000
            48                11.1524                 1.000
            49                11.1524                 1.000
            50                11.1524                 1.000
            51                11.1524                 1.000
            52                11.1524                 1.000
            53                11.1524                 1.000
            54                11.1524                 1.000
            55                11.1524                 1.000
            56                11.1524                 1.000
            57                11.1524                 1.000
            58                11.1524                 1.000
            59                11.1524                 1.000
            60                11.1524                 1.000
            61                11.1524                 1.000
            62                11.1524                 1.000
            63                11.1524                 1.000
            64                11.1524                 1.000
            65                11.1524                 1.000
            66                11.1524                 1.000
            67                11.1524                 1.000
            68                11.1524                 1.000
            69                11.1524                 1.000
            70                11.1524                 1.000
            71                11.1524                 1.000
            72                11.1524                 1.000
            73                11.1524                 1.000

  Total time to end of fitting =     210.0691 seconds

*  Output for configuration   1                                                *

  Components of energy :

  Interatomic potentials     =         -10.19615866 eV
  Monopole - monopole (real) =          -0.36886823 eV
  Monopole - monopole (recip)=          -1.24332830 eV
  Monopole - monopole (total)=          -1.61219653 eV
  Energy shift               =          11.15238543 eV
  Total lattice energy       =          -0.65596975 eV
  Total lattice energy       =             -63.2911 kJ/(mole unit cells)

[...]

*  Output for configuration  73                                                *

  Components of energy :

  Interatomic potentials     =         -10.18504177 eV
  Monopole - monopole (real) =          -0.37039696 eV
  Monopole - monopole (recip)=          -1.24848112 eV
  Monopole - monopole (total)=          -1.61887808 eV
  Energy shift               =          11.15238543 eV
  Total lattice energy       =          -0.65153442 eV
  Total lattice energy       =             -62.8631 kJ/(mole unit cells)

  Timing analysis for GULP :

  Task / Subroutine                                          Time (Seconds)
  Calculation of reciprocal space energy and derivatives         22.2294
  Calculation of real space energy and derivatives              176.9110
  Sum of squares for fitting                                    127.5760
  Global summation overhead                                       0.1320

  Dump file written as bi2te3.res

  Job Finished at 15:40.13  2nd June       2010