  Job Started  at 17:48.45 26th July       2010

  Number of CPUs =     1

  Total number of configurations input = 219

*  Input for Configuration =   1                                               *

  Formula = Sb2Te3

  Number of irreducible atoms/shells =       5

  Total number atoms/shells =       5

  Dimensionality = 3               :  Bulk

  Cartesian lattice vectors (Angstroms) :

       -2.504286    0.000000   10.443767
        1.252143   -2.168775   10.443767
        1.252143    2.168775   10.443767

  Cell parameters (Angstroms/Degrees):

  a =      10.7398    alpha =  23.3006
  b =      10.7398    beta  =  23.3006
  c =      10.7398    gamma =  23.3006

  Initial cell volume =         170.167643 Angs**3

  Temperature of configuration =  0.000     K

  Pressure of configuration =         0.000 GPa

  Fractional coordinates of asymmetric unit :

   No.  Atomic       x           y          z         Charge      Occupancy
        Label      (Frac)      (Frac)     (Frac)        (e)         (Frac)
      1 Sb    c    0.369021    0.369021    0.369021      0.0000    1.000000
      2 Sb    c    0.603203    0.603203    0.603203      0.0000    1.000000
      3 Te1   c    0.000000    0.000000    0.000000      0.0000    1.000000
      4 Te2   c    0.784571    0.784571    0.784571      0.0000    1.000000
      5 Te2   c    0.215429    0.215429    0.215429      0.0000    1.000000

[...]

   No.  Atomic       x           y          z         Charge      Occupancy
        Label      (Frac)      (Frac)     (Frac)        (e)         (Frac)
      1 Sb    c    0.666667    0.333333    0.063305      0.0000    1.000000
      2 Sb    c    0.666667    0.333333    0.270028      0.0000    1.000000
      3 Sb    c    0.000000    0.000000    0.396639      0.0000    1.000000
      4 Sb    c    0.000000    0.000000    0.603361      0.0000    1.000000
      5 Sb    c    0.333333    0.666667    0.729972      0.0000    1.000000
      6 Sb    c    0.333333    0.666667    0.936695      0.0000    1.000000
      7 Te1   c    0.000000    0.000000    0.000000      0.0000    1.000000
      8 Te2   c    0.333333    0.666667    0.117591      0.0000    1.000000
      9 Te2   c    0.000000    0.000000    0.215743      0.0000    1.000000
     10 Te1   c    0.333333    0.666667    0.333333      0.0000    1.000000
     11 Te2   c    0.666667    0.333333    0.450924      0.0000    1.000000
     12 Te2   c    0.333333    0.666667    0.549076      0.0000    1.000000
     13 Te1   c    0.666667    0.333333    0.666667      0.0000    1.000000
     14 Te2   c    0.000000    0.000000    0.784257      0.0000    1.000000
     15 Te2   c    0.666667    0.333333    0.882409      0.0000    1.000000

[...]

   No.  Atomic       x           y          z         Charge      Occupancy
        Label      (Frac)      (Frac)     (Frac)        (e)         (Frac)
      1 Sb    c    0.396797    0.396797    0.396797      0.0000    1.000000
      2 Sb    c    0.603203 *  0.603203 *  0.603203 *    0.0000    1.000000
      3 Te1   c    0.000000 *  0.000000 *  0.000000 *    0.0000    1.000000
      4 Te2   c    0.784571 *  0.784571 *  0.784571 *    0.0000    1.000000
      5 Te2   c    0.215429 *  0.215429 *  0.215429 *    0.0000    1.000000

*  Input for Configuration = 219                                               *

  Formula = Sb6Te9

  Number of irreducible atoms/shells =      15

  Total number atoms/shells =      15

  Dimensionality = 3               :  Bulk

  Cartesian lattice vectors (Angstroms) :

[...]

  Cell parameters (Angstroms/Degrees):

  a =       4.3300    alpha =  90.0000
  b =       4.3300    beta  =  90.0000
  c =      31.4329    gamma = 120.0000

  Initial cell volume =         510.376742 Angs**3

  Temperature of configuration =  0.000     K

  Pressure of configuration =         0.000 GPa

  Fractional coordinates of asymmetric unit :

   No.  Atomic       x           y          z         Charge      Occupancy
        Label      (Frac)      (Frac)     (Frac)        (e)         (Frac)
      1 Sb    c    0.666667    0.333333    0.063305      0.0000    1.000000
      2 Sb    c    0.666667 *  0.333333 *  0.270028 *    0.0000    1.000000
      3 Sb    c    0.000000 *  0.000000 *  0.396639 *    0.0000    1.000000
      4 Sb    c    0.000000 *  0.000000 *  0.603361 *    0.0000    1.000000
      5 Sb    c    0.333333 *  0.666667 *  0.729972 *    0.0000    1.000000
      6 Sb    c    0.333333 *  0.666667 *  0.936695 *    0.0000    1.000000
      7 Te1   c    0.000000 *  0.000000 *  0.000000 *    0.0000    1.000000
      8 Te2   c    0.333333 *  0.666667 *  0.117591 *    0.0000    1.000000
      9 Te2   c    0.000000 *  0.000000 *  0.215743 *    0.0000    1.000000
     10 Te1   c    0.333333 *  0.666667 *  0.333333 *    0.0000    1.000000
     11 Te2   c    0.666667 *  0.333333 *  0.450924 *    0.0000    1.000000
     12 Te2   c    0.333333 *  0.666667 *  0.549076 *    0.0000    1.000000
     13 Te1   c    0.666667 *  0.333333 *  0.666667 *    0.0000    1.000000
     14 Te2   c    0.000000 *  0.000000 *  0.784257 *    0.0000    1.000000
     15 Te2   c    0.666667 *  0.333333 *  0.882409 *    0.0000    1.000000

*  General input information                                                   *

  Species output for all configurations :

  Species    Type    Atomic    Atomic    Charge       Radii (Angs)     Library
                     Number     Mass       (e)     Cova   Ionic  VDW   Symbol
    Sb       Core       51     121.75     0.0000   1.460  0.000  2.170
    Te1      Core       52     127.60     0.0000   1.470  0.000  2.200
    Te2      Core       52     127.60     0.0000   1.470  0.000  2.200

  Lattice summation method               =    Ewald
  Accuracy factor for lattice sums       =    8.000

  Time limit = Infinity

  Maximum range for interatomic potentials =         8.000000 Angstroms

  Taper potentials to zero over   8.0000 Angstroms using Voter m =  20.0000

  General interatomic potentials :

Atom  Types   Potential         A         B         C         D     Cutoffs(Ang)
  1     2                                                            Min    Max
Sb   c Te2  c Morse         0.698E-01  2.63     2.99     0.00       0.000 12.000
Sb   c Te1  c Morse         0.526E-01  2.93     3.23     0.00       0.000 12.000
Sb   c Sb   c Morse         0.109      1.47     4.57     0.00       0.000 12.000
Te1  c Te1  c Morse         0.616E-01  2.50     4.37     0.00       0.000 12.000
Te2  c Te2  c Morse         0.188      1.05     4.02     0.00       0.000 12.000

  Energy shifts for configurations :

      Configuration           Energy (eV)        Scale Factor
             1               -14.6000                 1.000
             2               -14.6000                 1.000
             3               -14.6000                 1.000
             4               -14.6000                 1.000
             5               -14.6000                 1.000
             6               -14.6000                 1.000
             7               -14.6000                 1.000
             8               -14.6000                 1.000
             9               -14.6000                 1.000
            10               -14.6000                 1.000
            11               -14.6000                 1.000
            12               -14.6000                 1.000
            13               -14.6000                 1.000
            14               -14.6000                 1.000
            15               -14.6000                 1.000
            16               -14.6000                 1.000
            17               -14.6000                 1.000
            18               -14.6000                 1.000
            19               -14.6000                 1.000
            20               -14.6000                 1.000
            21               -14.6000                 1.000
            22               -14.6000                 1.000
            23               -14.6000                 1.000
            24               -14.6000                 1.000
            25               -14.6000                 1.000
            26               -14.6000                 1.000
            27               -14.6000                 1.000
            28               -14.6000                 1.000
            29               -14.6000                 1.000
            30               -14.6000                 1.000
            31               -14.6000                 1.000
            32               -14.6000                 1.000
            33               -14.6000                 1.000
            34               -14.6000                 1.000
            35               -14.6000                 1.000
            36               -14.6000                 1.000
            37               -14.6000                 1.000
            38               -14.6000                 1.000
            39               -14.6000                 1.000
            40               -14.6000                 1.000
            41               -14.6000                 1.000
            42               -14.6000                 1.000
            43               -14.6000                 1.000
            44               -14.6000                 1.000
            45               -14.6000                 1.000
            46               -14.6000                 1.000
            47               -14.6000                 1.000
            48               -14.6000                 1.000
            49               -14.6000                 1.000
            50               -14.6000                 1.000
            51               -14.6000                 1.000
            52               -14.6000                 1.000
            53               -14.6000                 1.000
            54               -14.6000                 1.000
            55               -14.6000                 1.000
            56               -14.6000                 1.000
            57               -14.6000                 1.000
            58               -14.6000                 1.000
            59               -14.6000                 1.000
            60               -14.6000                 1.000
[...]
           205               -14.6000                 1.000
           206               -14.6000                 1.000
           207               -14.6000                 1.000
           208               -14.6000                 1.000
           209               -14.6000                 1.000
           210               -14.6000                 1.000
           211               -14.6000                 1.000
           212               -14.6000                 1.000
           213               -14.6000                 1.000
           214               -14.6000                 1.000
           215               -14.6000                 1.000
           216               -14.6000                 1.000
           217               -14.6000                 1.000
           218               -14.6000                 1.000
           219               -14.6000                 1.000

  Number of variables   =   14
[...]
             6               -14.9188                 1.000
             7               -14.9188                 1.000
             8               -14.9188                 1.000
             9               -14.9188                 1.000
            10               -14.9188                 1.000
            11               -14.9188                 1.000
            12               -14.9188                 1.000
            13               -14.9188                 1.000
            14               -14.9188                 1.000
            15               -14.9188                 1.000
            16               -14.9188                 1.000
            17               -14.9188                 1.000
            18               -14.9188                 1.000
            19               -14.9188                 1.000
            20               -14.9188                 1.000
            21               -14.9188                 1.000
            22               -14.9188                 1.000
            23               -14.9188                 1.000
            24               -14.9188                 1.000
            25               -14.9188                 1.000
            26               -14.9188                 1.000
            27               -14.9188                 1.000
            28               -14.9188                 1.000
            29               -14.9188                 1.000
            30               -14.9188                 1.000
            31               -14.9188                 1.000
            32               -14.9188                 1.000
            33               -14.9188                 1.000
            34               -14.9188                 1.000
            35               -14.9188                 1.000
            36               -14.9188                 1.000
            37               -14.9188                 1.000
            38               -14.9188                 1.000
            39               -14.9188                 1.000
            40               -14.9188                 1.000
            41               -14.9188                 1.000
            42               -14.9188                 1.000
            43               -14.9188                 1.000
            44               -14.9188                 1.000
            45               -14.9188                 1.000
            46               -14.9188                 1.000
            47               -14.9188                 1.000
            48               -14.9188                 1.000
            49               -14.9188                 1.000
            50               -14.9188                 1.000
            51               -14.9188                 1.000
            52               -14.9188                 1.000
            53               -14.9188                 1.000
            54               -14.9188                 1.000
            55               -14.9188                 1.000
            56               -14.9188                 1.000
            57               -14.9188                 1.000
            58               -14.9188                 1.000
            59               -14.9188                 1.000
            60               -14.9188                 1.000
[...]
           205               -14.9188                 1.000
           206               -14.9188                 1.000
           207               -14.9188                 1.000
           208               -14.9188                 1.000
           209               -14.9188                 1.000
           210               -14.9188                 1.000
           211               -14.9188                 1.000
           212               -14.9188                 1.000
           213               -14.9188                 1.000
           214               -14.9188                 1.000
           215               -14.9188                 1.000
           216               -14.9188                 1.000
           217               -14.9188                 1.000
           218               -14.9188                 1.000
           219               -14.9188                 1.000

  Total time to end of fitting =    1501.0898 seconds

*  Output for configuration   1                                                *

!! WARNING : No variables to optimise - single point performed

  Components of energy :

  Interatomic potentials     =          -1.25328883 eV
  Monopole - monopole (real) =           0.00000000 eV
  Monopole - monopole (recip)=           0.00000000 eV
  Monopole - monopole (total)=           0.00000000 eV
  Energy shift               =         -14.91879210 eV
  Total lattice energy       =         -16.17208093 eV
  Total lattice energy       =           -1560.3586 kJ/(mole unit cells)

  Elastic Constant Matrix: (Units=GPa)

  Indices      1         2         3         4         5         6
       1     -4.9340  -15.7960    5.8962   -0.0000   -2.5784    0.0000
       2    -15.7960   -4.9340    5.8962   -0.0000    2.5784   -0.0000
       3      5.8962    5.8962  -14.0279   -0.0000    0.0000   -0.0000
       4     -0.0000   -0.0000   -0.0000   -5.6698    0.0000    2.5784
       5     -2.5784    2.5784    0.0000    0.0000   -5.6698    0.0000
       6      0.0000   -0.0000   -0.0000    2.5784    0.0000    5.4310

  Elastic Compliance Matrix: (Units=1/GPa)

[...]

 Mechanical properties :

  Convention :                    Reuss         Voigt         Hill
  Bulk  Modulus (GPa)     =      -3.05743      -3.54479      -3.30111
  Shear Modulus (GPa)     =     -59.97610      -2.50788     -31.24199
  Velocity S-wave (km/s)  =      -9.90623      -2.02569      -7.14971
  Velocity P-wave (km/s)  =      11.65535       3.35726       8.57666
  Compressibility (1/GPa) =   -0.32707195
  Stress axis :                     x             y             z
  Youngs Moduli (GPa)     =     162.35377     162.35375     -10.67382
  Poissons Ratio (x)      =                    11.29285      -0.28443
  Poissons Ratio (y)      =      11.29286                    -0.28443
  Poissons Ratio (z)      =       4.32630       4.32630

  Piezoelectric Strain Matrix: (Units=C/m**2)

  Indices      1         2         3         4         5         6
       x    -0.00000  -0.00000  -0.00000  -0.00000  -0.00000  -0.00000
       y    -0.00000  -0.00000  -0.00000  -0.00000  -0.00000  -0.00000
       z    -0.00000  -0.00000  -0.00000  -0.00000  -0.00000  -0.00000

  Piezoelectric Stress Matrix: (Units=10**-11 C/N)

[...]

  Static dielectric constant tensor :

              x         y         z
       x     1.00000   0.00000   0.00000
       y     0.00000   1.00000   0.00000
       z     0.00000   0.00000   1.00000

  Static refractive indices :

    1 =    1.00000      2 =    1.00000      3 =    1.00000

  Time to end of properties =    1501.0938 seconds

[...]

!! WARNING : No variables to optimise - single point performed

[...]

  Time to end of properties =    1501.7419 seconds

[...]

  Number of variables =     18

  Maximum number of calculations  =          1000
  Maximum Hessian update interval =            10
  Maximum step size               =   1.000000000
  Maximum parameter tolerance     =   0.000010000
  Maximum function  tolerance     =   0.000010000
  Maximum gradient  tolerance     =   0.001000000
  Maximum gradient  component     =   0.010000000

  Symmetry not applied to optimisation

  Cell parameters to be optimised using strains

  Newton-Raphson optimiser to be used

  BFGS hessian update to be used

[...]

  Start of bulk optimisation :

[...]

  **** Optimisation achieved ****

  Final energy =     -18.22755718 eV
  Final Gnorm  =       0.00008387

[...]

  Final fractional coordinates of atoms :

   No.  Atomic        x           y          z          Radius
        Label       (Frac)      (Frac)     (Frac)       (Angs)
     1  Sb    c     0.396797    0.396797    0.396797    0.000000
     2  Sb    c     0.601089    0.601089    0.601089    0.000000
     3  Te1   c     0.998943    0.998943    0.998943    0.000000
     4  Te2   c     0.782617    0.782617    0.782617    0.000000
     5  Te2   c     0.215269    0.215269    0.215269    0.000000

  Final Cartesian lattice vectors (Angstroms) :

[...]

  Final cell parameters and derivatives :

       a           10.462002 Angstrom     dE/de1(xx)     0.000331 eV/strain
       b           10.462002 Angstrom     dE/de2(yy)     0.000179 eV/strain
       c           10.462002 Angstrom     dE/de3(zz)     0.000175 eV/strain
       alpha       23.811843 Degrees      dE/de4(yz)     0.000004 eV/strain
       beta        23.811843 Degrees      dE/de5(xz)     0.000019 eV/strain
       gamma       23.811843 Degrees      dE/de6(xy)     0.000033 eV/strain

  Primitive cell volume =           163.971907 Angs**3

  Density of cell =      6.342624 g/cm**3

  Non-primitive cell volume =           163.971907 Angs**3

  Final internal derivatives :

   No.  Atomic          x             y             z           Radius
        Label          (eV)          (eV)          (eV)        (eV/Angs)
      1 Sb    c       0.000000      0.000000      0.000000      0.000000
      2 Sb    c      -0.000831     -0.000831     -0.000831      0.000000
      3 Te1   c       0.000000      0.000000      0.000000      0.000000
      4 Te2   c      -0.000077     -0.000077     -0.000077      0.000000
      5 Te2   c       0.000077      0.000077      0.000077      0.000000
  Maximum abs         0.000831      0.000831      0.000831      0.000000

[...]

  Time to end of optimisation =    1501.9019 seconds

*  Output for configuration 219                                                *

[...]

  Number of variables =     48

  Maximum number of calculations  =          1000
  Maximum Hessian update interval =            10
  Maximum step size               =   1.000000000
  Maximum parameter tolerance     =   0.000010000
  Maximum function  tolerance     =   0.000010000
  Maximum gradient  tolerance     =   0.001000000
  Maximum gradient  component     =   0.010000000

  Symmetry not applied to optimisation

  Cell parameters to be optimised using strains

  Newton-Raphson optimiser to be used

  BFGS hessian update to be used

  Dumpfile to be written after every cycle

  Start of bulk optimisation :

  ** Hessian calculated **

  **** Optimisation achieved ****

  Final energy =     -24.84508734 eV
  Final Gnorm  =       0.00001916

  Components of energy :

  Interatomic potentials     =          -9.92629524 eV
  Monopole - monopole (real) =           0.00000000 eV
  Monopole - monopole (recip)=           0.00000000 eV
  Monopole - monopole (total)=           0.00000000 eV
  Energy shift               =         -14.91879210 eV
  Total lattice energy       =         -24.84508734 eV
  Total lattice energy       =           -2397.1711 kJ/(mole unit cells)

  Final fractional coordinates of atoms :

   No.  Atomic        x           y          z          Radius
        Label       (Frac)      (Frac)     (Frac)       (Angs)
     1  Sb    c     0.666667    0.333333    0.063305    0.000000
     2  Sb    c     0.666667    0.333333    0.267599    0.000000
     3  Sb    c     1.000000    0.000000    0.396639    0.000000
     4  Sb    c     1.000000    0.000000    0.600933    0.000000
     5  Sb    c     0.333333    0.666667    0.729972    0.000000
     6  Sb    c     0.333333    0.666667    0.934266    0.000000
     7  Te1   c     1.000000    0.000000    0.998786    0.000000
     8  Te2   c     0.333333    0.666667    0.115793    0.000000
     9  Te2   c     1.000000    0.000000    0.215112    0.000000
    10  Te1   c     0.333333    0.666667    0.332119    0.000000
    11  Te2   c     0.666667    0.333333    0.449126    0.000000
    12  Te2   c     0.333333    0.666667    0.548445    0.000000
    13  Te1   c     0.666667    0.333333    0.665452    0.000000
    14  Te2   c     1.000000    0.000000    0.782459    0.000000
    15  Te2   c     0.666667    0.333333    0.881779    0.000000

  Final Cartesian lattice vectors (Angstroms) :

        4.316735    0.000000   -0.000000
       -2.158367    3.738402    0.000000
       -0.000000    0.000000   30.482145

  Final cell parameters and derivatives :

       a            4.316735 Angstrom     dE/de1(xx)    -0.000078 eV/strain
       b            4.316735 Angstrom     dE/de2(yy)    -0.000078 eV/strain
       c           30.482145 Angstrom     dE/de3(zz)    -0.000151 eV/strain
       alpha       90.000000 Degrees      dE/de4(yz)     0.000000 eV/strain
       beta        90.000000 Degrees      dE/de5(xz)    -0.000000 eV/strain
       gamma      120.000000 Degrees      dE/de6(xy)    -0.000000 eV/strain

  Primitive cell volume =           491.911435 Angs**3

  Density of cell =      6.342679 g/cm**3

  Non-primitive cell volume =           491.911435 Angs**3

  Final internal derivatives :

   No.  Atomic          x             y             z           Radius
        Label          (eV)          (eV)          (eV)        (eV/Angs)
      1 Sb    c       0.000000      0.000000      0.000000      0.000000
      2 Sb    c      -0.000000      0.000000      0.000353      0.000000
      3 Sb    c       0.000000     -0.000000     -0.000353      0.000000
      4 Sb    c      -0.000000      0.000000      0.000353      0.000000
      5 Sb    c       0.000000     -0.000000     -0.000353      0.000000
      6 Sb    c      -0.000000      0.000000      0.000353      0.000000
      7 Te1   c       0.000000      0.000000     -0.000000      0.000000
      8 Te2   c      -0.000000      0.000000      0.000176      0.000000
      9 Te2   c       0.000000     -0.000000     -0.000176      0.000000
     10 Te1   c       0.000000     -0.000000      0.000000      0.000000
     11 Te2   c      -0.000000      0.000000      0.000176      0.000000
     12 Te2   c       0.000000     -0.000000     -0.000176      0.000000
     13 Te1   c       0.000000     -0.000000     -0.000000      0.000000
     14 Te2   c      -0.000000      0.000000      0.000176      0.000000
     15 Te2   c       0.000000     -0.000000     -0.000176      0.000000
  Maximum abs         0.000000      0.000000      0.000353      0.000000

  Elastic Constant Matrix: (Units=GPa)

[...]

  Elastic Compliance Matrix: (Units=1/GPa)

  Indices      1         2         3         4         5         6
       1    0.020471 -0.006614 -0.011639 -0.017593  0.000000 -0.000000
       2   -0.006614  0.020471 -0.011639  0.017593 -0.000000  0.000000
       3   -0.011639 -0.011639  0.069278  0.000000 -0.000000 -0.000000
       4   -0.017593  0.017593  0.000000  0.087580 -0.000000 -0.000000
       5    0.000000 -0.000000 -0.000000 -0.000000  0.087580 -0.035187
       6   -0.000000  0.000000 -0.000000 -0.000000 -0.035187  0.054171

 Mechanical properties :

  Convention :                    Reuss         Voigt         Hill
  Bulk  Modulus (GPa)     =      19.82779      32.08518      25.95649
  Shear Modulus (GPa)     =      12.01494      18.61137      15.31315
  Velocity S-wave (km/s)  =       4.35236       5.41692       4.91356
  Velocity P-wave (km/s)  =       7.51786       9.47155       8.55069
  Compressibility (1/GPa) =    0.05043427
  Stress axis :                     x             y             z
  Youngs Moduli (GPa)     =      48.84905      48.84905      14.43461
  Poissons Ratio (x)      =                     0.32309       0.16801
  Poissons Ratio (y)      =       0.32309                     0.16801
  Poissons Ratio (z)      =       0.56858       0.56858

  Piezoelectric Strain Matrix: (Units=C/m**2)

[...]

  Piezoelectric Stress Matrix: (Units=10**-11 C/N)

  Indices      1         2         3         4         5         6
       x     0.00000   0.00000   0.00000   0.00000   0.00000   0.00000
       y     0.00000   0.00000   0.00000   0.00000   0.00000   0.00000
       z     0.00000   0.00000   0.00000   0.00000   0.00000   0.00000

  Static dielectric constant tensor :

              x         y         z
       x     1.00000   0.00000   0.00000
       y     0.00000   1.00000   0.00000
       z     0.00000   0.00000   1.00000

  Static refractive indices :

    1 =    1.00000      2 =    1.00000      3 =    1.00000

  Time to end of optimisation =    1502.1379 seconds

  Timing analysis for GULP :

  Task / Subroutine                                          Time (Seconds)
  Calculation of real space energy and derivatives             1445.2104
  Sum of squares for fitting                                     38.7624
  Global summation overhead                                       0.8880

  Dump file written as sb2te3_18.res

  **** GULP has completed with 217 warnings - beware! ****

  Job Finished at 18:13.49 26th July       2010